     Program PHONON v.6.2.2 starts on 10Apr2018 at 13:27:11

     R & G space division:  proc/nbgrp/npool/nimage =       2

     Reading data from directory:
     ./si.save/

     IMPORTANT: XC functional enforced from input :
     Exchange-correlation      = PBE ( 1  4  3  4 0 0)
     Any further DFT definition will be discarded
     Please, verify this is what you really want

     Dynamical matrices for ( 4, 4, 4)  uniform grid of q-points
     (   8 q-points):
       N         xq(1)         xq(2)         xq(3)
       1   0.000000000   0.000000000   0.000000000
       2  -0.250000000   0.250000000  -0.250000000
       3   0.500000000  -0.500000000   0.500000000
       4   0.000000000   0.500000000   0.000000000
       5   0.750000000  -0.250000000   0.750000000
       6   0.500000000   0.000000000   0.500000000
       7   0.000000000  -1.000000000   0.000000000
       8  -0.500000000  -1.000000000   0.000000000

     Calculation of q =    0.0000000   0.0000000   0.0000000

     Phonon dispersions for Si

     bravais-lattice index     =            2
     lattice parameter (alat)  =      10.3463  a.u.
     unit-cell volume          =     276.8823 (a.u.)^3
     number of atoms/cell      =            2
     number of atomic types    =            1
     kinetic-energy cut-off    =      20.0000  Ry
     charge density cut-off    =      80.0000  Ry
     convergence threshold     =      1.0E-14
     beta                      =       0.7000
     number of iterations used =            4
     Exchange-correlation      = PBE ( 1  4  3  4 0 0)

     celldm(1)=   10.34630  celldm(2)=    0.00000  celldm(3)=    0.00000
     celldm(4)=    0.00000  celldm(5)=    0.00000  celldm(6)=    0.00000

     crystal axes: (cart. coord. in units of alat)
               a(1) = ( -0.5000  0.0000  0.5000 )
               a(2) = (  0.0000  0.5000  0.5000 )
               a(3) = ( -0.5000  0.5000  0.0000 )

     reciprocal axes: (cart. coord. in units 2 pi/alat)
               b(1) = ( -1.0000 -1.0000  1.0000 )
               b(2) = (  1.0000  1.0000  1.0000 )
               b(3) = ( -1.0000  1.0000 -1.0000 )

     Atoms inside the unit cell:

     Cartesian axes

     site n.  atom      mass           positions (alat units)
        1     Si  28.0860   tau(    1) = (    0.00000    0.00000    0.00000  )
        2     Si  28.0860   tau(    2) = (   -0.25000    0.25000    0.25000  )

     Computing dynamical matrix for
                    q = (   0.0000000   0.0000000   0.0000000 )

     49 Sym.Ops. (with q -> -q+G )

     G cutoff =  216.9204  (   1692 G-vectors)     FFT grid: ( 24, 24, 24)
     number of k points=    28

     PseudoPot. # 1 for Si read from file:
     ../../../Pseudo_potentials/Si_PBE.upf
     MD5 check sum: 8bd403cc8851335ce2e07d79feea9aec
     Pseudo is Norm-conserving + core correction, Zval =  4.0
     Generated using ONCVPSP code by D. R. Hamann
     Using radial grid of 1510 points,  6 beta functions with:
                l(1) =   0
                l(2) =   0
                l(3) =   1
                l(4) =   1
                l(5) =   2
                l(6) =   2

     Mode symmetry, O_h (m-3m)  point group:

     Electric field:
     Dielectric constant
     Born effective charges in two ways

     Atomic displacements:
     There are   2 irreducible representations

     Representation     1      3 modes -T_2g G_25' G_5+  To be done

     Representation     2      3 modes -T_1u G_15  G_4-  To be done

     Alpha used in Ewald sum =   0.8000

     Electric Fields Calculation

      thresh= 1.000E-02 alpha_mix =  0.700 |ddv_scf|^2 =  4.544E-07

[...]

     End of electric fields calculation

          Dielectric constant in cartesian axis

          (      13.066019272      -0.000000000      -0.000000000 )
          (      -0.000000000      13.066019272      -0.000000000 )
          (      -0.000000000      -0.000000000      13.066019272 )

          Effective charges (d Force / dE) in cartesian axis

           atom      1   Si
      Ex  (       -0.00662       -0.00000       -0.00000 )
      Ey  (       -0.00000       -0.00662       -0.00000 )
      Ez  (        0.00000        0.00000       -0.00662 )
           atom      2   Si
      Ex  (       -0.00662       -0.00000        0.00000 )
      Ey  (       -0.00000       -0.00662        0.00000 )
      Ez  (        0.00000        0.00000       -0.00662 )

     Representation #  1 modes #   1  2  3

     Self-consistent Calculation

[...]

     End of self-consistent calculation

     Convergence has been achieved

[...]

     Number of q in the star =    1
     List of q in the star:
          1   0.000000000   0.000000000   0.000000000

          Dielectric constant in cartesian axis

          (      13.066019272      -0.000000000      -0.000000000 )
          (      -0.000000000      13.066019272      -0.000000000 )
          (      -0.000000000      -0.000000000      13.066019272 )

          Effective charges (d Force / dE) in cartesian axis

[...]

          Effective charges (d P / du) in cartesian axis

           atom      1   Si
      Px  (       -0.00678        0.00000       -0.00000 )
      Py  (        0.00000       -0.00678       -0.00000 )
      Pz  (       -0.00000       -0.00000       -0.00678 )
           atom      2   Si
      Px  (       -0.00678        0.00000        0.00000 )
      Py  (        0.00000       -0.00678       -0.00000 )
      Pz  (        0.00000       -0.00000       -0.00678 )

     Diagonalizing the dynamical matrix

     q = (    0.000000000   0.000000000   0.000000000 )

     freq (    1) =      -0.122760 [THz] =      -4.094819 [cm-1]
     freq (    2) =      -0.122760 [THz] =      -4.094819 [cm-1]
     freq (    3) =      -0.122760 [THz] =      -4.094819 [cm-1]
     freq (    4) =      15.024720 [THz] =     501.170706 [cm-1]
     freq (    5) =      15.024720 [THz] =     501.170706 [cm-1]
     freq (    6) =      15.024720 [THz] =     501.170706 [cm-1]

     Mode symmetry, O_h (m-3m)  point group:

     freq (  1 -  3) =         -4.1  [cm-1]   --> T_1u G_15  G_4- I
     freq (  4 -  6) =        501.2  [cm-1]   --> T_2g G_25' G_5+ R

[...]

     Title:
     Phonon dispersions for Si

     bravais-lattice index     =            2
     lattice parameter (alat)  =      10.3463  a.u.
     unit-cell volume          =     276.8823 (a.u.)^3
     number of atoms/cell      =            2
     number of atomic types    =            1
     number of electrons       =         8.00
     number of Kohn-Sham states=            8
     kinetic-energy cutoff     =      20.0000  Ry
     charge density cutoff     =      80.0000  Ry
     Exchange-correlation      = PBE ( 1  4  3  4 0 0)

[...]

     atomic species   valence    mass     pseudopotential
        Si             4.00    28.08600     Si( 1.00)

     48 Sym. Ops., with inversion, found

[...]

     site n.     atom                  positions (alat units)
         1           Si  tau(   1) = (   0.0000000   0.0000000   0.0000000  )
         2           Si  tau(   2) = (  -0.2500000   0.2500000   0.2500000  )

     number of k points=   364

     Number of k-points >= 100: set verbosity='high' to print them.

     The potential is recalculated from file :
     ./_ph0/si.save/charge-density.dat

     Starting wfc are    8 atomic wfcs

     Band Structure Calculation
     Davidson diagonalization with overlap

     ethr =  1.25E-10,  avg # of iterations = 18.4

     End of band structure calculation

     Number of k-points >= 100: set verbosity='high' to print the bands.

     highest occupied, lowest unoccupied level (ev):     5.8448    6.8047

     Writing output data file si.save

[...]

      6 Sym.Ops. (no q -> -q+G )

[...]

     Mode symmetry, C_3v (3m)   point group:

[...]

     Representation     1      1 modes -A_1  L_1  To be done

     Representation     2      1 modes -A_1  L_1  To be done

     Representation     3      2 modes -E    L_3  To be done

     Representation     4      2 modes -E    L_3  To be done

[...]

     Representation #  1 mode #   1

[...]

     Mode symmetry, C_3v (3m)   point group:

     freq (  1 -  2) =         94.5  [cm-1]   --> E    L_3
     freq (  3 -  3) =        224.2  [cm-1]   --> A_1  L_1
     freq (  4 -  4) =        472.3  [cm-1]   --> A_1  L_1
     freq (  5 -  6) =        482.1  [cm-1]   --> E    L_3

[...]

     Representation     1      1 modes -  To be done

[...]

     Mode symmetry, C_4v (4mm)  point group:

[...]

     Representation     1      1 modes -A_1  G_1 D_1  To be done

     Representation     2      1 modes -B_2  G_4 D_2'  To be done

     Representation     3      2 modes -E    G_5 D_5  To be done

     Representation     4      2 modes -E    G_5 D_5  To be done

[...]

     Mode symmetry, C_4v (4mm)  point group:

     freq (  1 -  2) =        126.9  [cm-1]   --> E    G_5 D_5
     freq (  3 -  3) =        234.1  [cm-1]   --> A_1  G_1 D_1
     freq (  4 -  5) =        460.0  [cm-1]   --> E    G_5 D_5
     freq (  6 -  6) =        480.3  [cm-1]   --> B_2  G_4 D_2'

[...]

     Mode symmetry, C_s (m)     point group:

[...]

     Representation     1      1 modes -A'  To be done

[...]

     Representation     4      1 modes -A'  To be done

     Representation     5      1 modes -A''  To be done

     Representation     6      1 modes -A''  To be done

[...]

     Mode symmetry, C_s (m)     point group:

     freq (  1 -  1) =        141.5  [cm-1]   --> A''
     freq (  2 -  2) =        195.7  [cm-1]   --> A'
     freq (  3 -  3) =        310.7  [cm-1]   --> A'
     freq (  4 -  4) =        401.1  [cm-1]   --> A'
     freq (  5 -  5) =        452.2  [cm-1]   --> A''
     freq (  6 -  6) =        465.6  [cm-1]   --> A'

[...]

     Mode symmetry, C_2v (mm2)  point group:

[...]

     Representation     6      1 modes -B_2  D_4  S_4  To be done

[...]

     Representation #  6 mode #   6

[...]

     Mode symmetry, C_2v (mm2)  point group:

     freq (  1 -  1) =        137.3  [cm-1]   --> B_1  D_3  S_3
     freq (  2 -  2) =        192.3  [cm-1]   --> B_2  D_4  S_4
     freq (  3 -  3) =        275.8  [cm-1]   --> A_1  D_1  S_1
     freq (  4 -  4) =        407.4  [cm-1]   --> B_2  D_4  S_4
     freq (  5 -  5) =        459.7  [cm-1]   --> A_2  D_2  S_2
     freq (  6 -  6) =        473.8  [cm-1]   --> A_1  D_1  S_1

[...]

     17 Sym.Ops. (with q -> -q+G )

[...]

     Calculation of q =   -0.5000000  -1.0000000   0.0000000

     Title:
     Phonon dispersions for Si

     bravais-lattice index     =            2
     lattice parameter (alat)  =      10.3463  a.u.
     unit-cell volume          =     276.8823 (a.u.)^3
     number of atoms/cell      =            2
     number of atomic types    =            1
     number of electrons       =         8.00
     number of Kohn-Sham states=            8
     kinetic-energy cutoff     =      20.0000  Ry
     charge density cutoff     =      80.0000  Ry
     Exchange-correlation      = PBE ( 1  4  3  4 0 0)

[...]

     atomic species   valence    mass     pseudopotential
        Si             4.00    28.08600     Si( 1.00)

     48 Sym. Ops., with inversion, found

[...]

     site n.     atom                  positions (alat units)
         1           Si  tau(   1) = (   0.0000000   0.0000000   0.0000000  )
         2           Si  tau(   2) = (  -0.2500000   0.2500000   0.2500000  )

     number of k points=   216

     Number of k-points >= 100: set verbosity='high' to print them.

     The potential is recalculated from file :
     ./_ph0/si.save/charge-density.dat

     Starting wfc are    8 atomic wfcs

     Band Structure Calculation
     Davidson diagonalization with overlap

     ethr =  1.25E-10,  avg # of iterations = 19.4

     End of band structure calculation

     Number of k-points >= 100: set verbosity='high' to print the bands.

     highest occupied, lowest unoccupied level (ev):     5.8448    6.8047

     Writing output data file si.save

     Phonon dispersions for Si

     bravais-lattice index     =            2
     lattice parameter (alat)  =      10.3463  a.u.
     unit-cell volume          =     276.8823 (a.u.)^3
     number of atoms/cell      =            2
     number of atomic types    =            1
     kinetic-energy cut-off    =      20.0000  Ry
     charge density cut-off    =      80.0000  Ry
     convergence threshold     =      1.0E-14
     beta                      =       0.7000
     number of iterations used =            4
     Exchange-correlation      = PBE ( 1  4  3  4 0 0)

     celldm(1)=   10.34630  celldm(2)=    0.00000  celldm(3)=    0.00000
     celldm(4)=    0.00000  celldm(5)=    0.00000  celldm(6)=    0.00000

     crystal axes: (cart. coord. in units of alat)
               a(1) = ( -0.5000  0.0000  0.5000 )
               a(2) = (  0.0000  0.5000  0.5000 )
               a(3) = ( -0.5000  0.5000  0.0000 )

     reciprocal axes: (cart. coord. in units 2 pi/alat)
               b(1) = ( -1.0000 -1.0000  1.0000 )
               b(2) = (  1.0000  1.0000  1.0000 )
               b(3) = ( -1.0000  1.0000 -1.0000 )

     Atoms inside the unit cell:

     Cartesian axes

     site n.  atom      mass           positions (alat units)
        1     Si  28.0860   tau(    1) = (    0.00000    0.00000    0.00000  )
        2     Si  28.0860   tau(    2) = (   -0.25000    0.25000    0.25000  )

     Computing dynamical matrix for
                    q = (  -0.5000000  -1.0000000   0.0000000 )

      8 Sym.Ops. (no q -> -q+G )

     G cutoff =  216.9204  (   1692 G-vectors)     FFT grid: ( 24, 24, 24)
     number of k points=   216

     PseudoPot. # 1 for Si read from file:
     ../../../Pseudo_potentials/Si_PBE.upf
     MD5 check sum: 8bd403cc8851335ce2e07d79feea9aec
     Pseudo is Norm-conserving + core correction, Zval =  4.0
     Generated using ONCVPSP code by D. R. Hamann
     Using radial grid of 1510 points,  6 beta functions with:
                l(1) =   0
                l(2) =   0
                l(3) =   1
                l(4) =   1
                l(5) =   2
                l(6) =   2

     Atomic displacements:
     There are   3 irreducible representations

[...]

     Representation     3      2 modes -  To be done

     Alpha used in Ewald sum =   0.8000

[...]

     Representation #  3 modes #   5  6

     Self-consistent Calculation

[...]

      thresh= 3.741E-08 alpha_mix =  0.700 |ddv_scf|^2 =  4.042E-15

     End of self-consistent calculation

     Convergence has been achieved

     Number of q in the star =    6
     List of q in the star:
          1  -0.500000000  -1.000000000   0.000000000
          2   0.000000000   1.000000000   0.500000000
          3   0.000000000  -1.000000000  -0.500000000
          4   0.500000000   1.000000000   0.000000000
          5  -1.000000000  -0.500000000   0.000000000
          6   0.000000000  -0.500000000  -1.000000000

     Diagonalizing the dynamical matrix

     q = (   -0.500000000  -1.000000000   0.000000000 )

     freq (    1) =       6.012744 [THz] =     200.563541 [cm-1]
     freq (    2) =       6.012744 [THz] =     200.563541 [cm-1]
     freq (    3) =      10.279586 [THz] =     342.890082 [cm-1]
     freq (    4) =      10.279586 [THz] =     342.890082 [cm-1]
     freq (    5) =      13.525107 [THz] =     451.149001 [cm-1]
     freq (    6) =      13.525107 [THz] =     451.149001 [cm-1]

     General routines

     Parallel routines

     INITIALIZATION:

     DYNAMICAL MATRIX:

      General routines

   This run was terminated on:  13:40:56  10Apr2018

   JOB DONE.