     Program PHONON v.6.2.2 starts on 22Apr2018 at 14:34:16

     R & G space division:  proc/nbgrp/npool/nimage =       4

     Reading data from directory:
     ./SnO2.save/

     IMPORTANT: XC functional enforced from input :
     Exchange-correlation      = PBE ( 1  4  3  4 0 0)
     Any further DFT definition will be discarded
     Please, verify this is what you really want

     Check: negative/imaginary core charge=   -0.000002    0.000000

     Dynamical matrices for ( 2, 2, 2)  uniform grid of q-points
     (   6 q-points):
       N         xq(1)         xq(2)         xq(3)
       1   0.000000000   0.000000000   0.000000000
       2   0.000000000   0.000000000  -0.744493277
       3   0.000000000  -0.500000000   0.000000000
       4   0.000000000  -0.500000000  -0.744493277
       5  -0.500000000  -0.500000000   0.000000000
       6  -0.500000000  -0.500000000  -0.744493277

     Calculation of q =    0.0000000   0.0000000   0.0000000

     Phonon dispersions for Si

     bravais-lattice index     =            6
     lattice parameter (alat)  =       9.1370  a.u.
     unit-cell volume          =     512.3005 (a.u.)^3
     number of atoms/cell      =            6
     number of atomic types    =            2
     kinetic-energy cut-off    =      75.0000  Ry
     charge density cut-off    =     300.0000  Ry
     convergence threshold     =      1.0E-14
     beta                      =       0.7000
     number of iterations used =            4
     Exchange-correlation      = PBE ( 1  4  3  4 0 0)

     celldm(1)=    9.13703  celldm(2)=    1.00000  celldm(3)=    0.67160
     celldm(4)=    0.00000  celldm(5)=    0.00000  celldm(6)=    0.00000

     crystal axes: (cart. coord. in units of alat)
               a(1) = (  1.0000  0.0000  0.0000 )
               a(2) = (  0.0000  1.0000  0.0000 )
               a(3) = (  0.0000  0.0000  0.6716 )

     reciprocal axes: (cart. coord. in units 2 pi/alat)
               b(1) = (  1.0000  0.0000  0.0000 )
               b(2) = (  0.0000  1.0000  0.0000 )
               b(3) = (  0.0000  0.0000  1.4890 )

     Atoms inside the unit cell:

     Cartesian axes

     site n.  atom      mass           positions (alat units)
        1     Sn 118.7100   tau(    1) = (   -0.00033   -0.00033    0.00000  )
        2     Sn 118.7100   tau(    2) = (    0.49967    0.49967    0.33580  )
        3     O   15.9990   tau(    3) = (    0.80637    0.19296    0.33580  )
        4     O   15.9990   tau(    4) = (    0.19296    0.80637    0.33580  )
        5     O   15.9990   tau(    5) = (    0.30637    0.30637    0.00000  )
        6     O   15.9990   tau(    6) = (    0.69296    0.69296    0.00000  )

     Computing dynamical matrix for
                    q = (   0.0000000   0.0000000   0.0000000 )

      5 Sym.Ops. (with q -> -q+G )

     G cutoff =  634.4127  (  11237 G-vectors)     FFT grid: ( 54, 54, 36)
     number of k points=    21

     PseudoPot. # 1 for Sn read from file:
     ../../../Pseudo_potentials/Sn_PBE.upf
     MD5 check sum: 78e6386ae56e929f0568ae8bf606a80c
     Pseudo is Norm-conserving + core correction, Zval = 14.0
     Generated using ONCVPSP code by D. R. Hamann
     Using radial grid of 1628 points,  6 beta functions with:
                l(1) =   0
                l(2) =   0
                l(3) =   1
                l(4) =   1
                l(5) =   2
                l(6) =   2

     PseudoPot. # 2 for O  read from file:
     ../../../Pseudo_potentials/O_PBE.upf
     MD5 check sum: 3e3f909f7470e8921608ab6b1f57bbae
     Pseudo is Norm-conserving + core correction, Zval =  6.0
     Generated using ONCVPSP code by D. R. Hamann
     Using radial grid of  936 points,  5 beta functions with:
                l(1) =   0
                l(2) =   0
                l(3) =   1
                l(4) =   1
                l(5) =   2

     Mode symmetry, C_2v (mm2)  point group:

     Electric field:
     Dielectric constant
     Born effective charges in two ways

     Atomic displacements:
     There are  18 irreducible representations

     Representation     1      1 modes -A_1  D_1  S_1  To be done

[...]

     Alpha used in Ewald sum =   2.7000

     Electric Fields Calculation

      thresh= 1.000E-02 alpha_mix =  0.700 |ddv_scf|^2 =  5.361E-08

[...]

     End of electric fields calculation

          Dielectric constant in cartesian axis

          (       5.792031175       0.000000013       0.000000000 )
          (       0.000000013       5.792031175       0.000000000 )
          (       0.000000000       0.000000000       5.429848679 )

          Effective charges (d Force / dE) in cartesian axis

           atom      1   Sn
      Ex  (        4.16234        0.57555        0.00000 )
      Ey  (        0.57555        4.16234        0.00000 )
      Ez  (        0.00000        0.00000        4.58746 )
           atom      2   Sn
      Ex  (        4.16234       -0.57555        0.00000 )
      Ey  (       -0.57555        4.16234        0.00000 )
      Ez  (        0.00000        0.00000        4.58746 )
           atom      3   O
      Ex  (       -2.10094        0.85825        0.00000 )
      Ey  (        0.85824       -2.10090        0.00000 )
      Ez  (        0.00000        0.00000       -2.35608 )
           atom      4   O
      Ex  (       -2.10090        0.85824        0.00000 )
      Ey  (        0.85825       -2.10094        0.00000 )
      Ez  (        0.00000        0.00000       -2.35608 )
           atom      5   O
      Ex  (       -2.10091       -0.85823        0.00000 )
      Ey  (       -0.85823       -2.10091        0.00000 )
      Ez  (        0.00000        0.00000       -2.35608 )
           atom      6   O
      Ex  (       -2.10093       -0.85825        0.00000 )
      Ey  (       -0.85825       -2.10093        0.00000 )
      Ez  (        0.00000        0.00000       -2.35608 )

     Representation #  1 mode #   1

     Self-consistent Calculation

[...]

     End of self-consistent calculation

     Convergence has been achieved

[...]

     Number of q in the star =    1
     List of q in the star:
          1   0.000000000   0.000000000   0.000000000

          Dielectric constant in cartesian axis

          (       5.792031175       0.000000013       0.000000000 )
          (       0.000000013       5.792031175       0.000000000 )
          (       0.000000000       0.000000000       5.429848679 )

          Effective charges (d Force / dE) in cartesian axis

[...]

          Effective charges (d P / du) in cartesian axis

           atom      1   Sn
      Px  (        4.16221        0.57610        0.00000 )
      Py  (        0.57610        4.16221        0.00000 )
      Pz  (        0.00000        0.00000        4.58761 )
           atom      2   Sn
      Px  (        4.16221       -0.57610        0.00000 )
      Py  (       -0.57610        4.16221        0.00000 )
      Pz  (        0.00000        0.00000        4.58761 )
           atom      3   O
      Px  (       -2.10092        0.85825        0.00000 )
      Py  (        0.85822       -2.10102        0.00000 )
      Pz  (        0.00000        0.00000       -2.35576 )
           atom      4   O
      Px  (       -2.10102        0.85822        0.00000 )
      Py  (        0.85825       -2.10092        0.00000 )
      Pz  (        0.00000        0.00000       -2.35576 )
           atom      5   O
      Px  (       -2.10086       -0.85838        0.00000 )
      Py  (       -0.85838       -2.10086        0.00000 )
      Pz  (        0.00000        0.00000       -2.35577 )
           atom      6   O
      Px  (       -2.10084       -0.85837        0.00000 )
      Py  (       -0.85837       -2.10084        0.00000 )
      Pz  (        0.00000        0.00000       -2.35577 )

     Diagonalizing the dynamical matrix

     q = (    0.000000000   0.000000000   0.000000000 )

     freq (    1) =      -0.643148 [THz] =     -21.453116 [cm-1]
     freq (    2) =      -0.567980 [THz] =     -18.945779 [cm-1]
     freq (    3) =       0.726176 [THz] =      24.222629 [cm-1]
     freq (    4) =       2.855127 [THz] =      95.236793 [cm-1]
     freq (    5) =       4.239839 [THz] =     141.425792 [cm-1]
     freq (    6) =       6.397463 [THz] =     213.396380 [cm-1]
     freq (    7) =       6.398898 [THz] =     213.444269 [cm-1]
     freq (    8) =       7.795496 [THz] =     260.029755 [cm-1]
     freq (    9) =       7.796427 [THz] =     260.060821 [cm-1]
     freq (   10) =      10.049142 [THz] =     335.203311 [cm-1]
     freq (   11) =      13.088570 [THz] =     436.587692 [cm-1]
     freq (   12) =      13.286829 [THz] =     443.200896 [cm-1]
     freq (   13) =      13.298546 [THz] =     443.591747 [cm-1]
     freq (   14) =      15.964236 [THz] =     532.509579 [cm-1]
     freq (   15) =      16.433189 [THz] =     548.152188 [cm-1]
     freq (   16) =      16.433677 [THz] =     548.168460 [cm-1]
     freq (   17) =      17.506505 [THz] =     583.954135 [cm-1]
     freq (   18) =      21.136607 [THz] =     705.041312 [cm-1]

[...]

     freq (  1 -  1) =        -21.5  [cm-1]   --> A_1  D_1  S_1   I+R
     freq (  2 -  2) =        -18.9  [cm-1]   --> B_1  D_3  S_3   I+R
     freq (  3 -  3) =         24.2  [cm-1]   --> B_2  D_4  S_4   I+R
     freq (  4 -  4) =         95.2  [cm-1]   --> B_1  D_3  S_3   I+R
     freq (  5 -  5) =        141.4  [cm-1]   --> B_2  D_4  S_4   I+R
     freq (  6 -  6) =        213.4  [cm-1]   --> A_1  D_1  S_1   I+R
     freq (  7 -  7) =        213.4  [cm-1]   --> B_1  D_3  S_3   I+R
     freq (  8 -  8) =        260.0  [cm-1]   --> A_1  D_1  S_1   I+R
     freq (  9 -  9) =        260.1  [cm-1]   --> B_1  D_3  S_3   I+R
     freq ( 10 - 10) =        335.2  [cm-1]   --> B_1  D_3  S_3   I+R
     freq ( 11 - 11) =        436.6  [cm-1]   --> B_2  D_4  S_4   I+R
     freq ( 12 - 12) =        443.2  [cm-1]   --> A_2  D_2  S_2   R
     freq ( 13 - 13) =        443.6  [cm-1]   --> B_2  D_4  S_4   I+R
     freq ( 14 - 14) =        532.5  [cm-1]   --> B_2  D_4  S_4   I+R
     freq ( 15 - 15) =        548.2  [cm-1]   --> A_1  D_1  S_1   I+R
     freq ( 16 - 16) =        548.2  [cm-1]   --> B_1  D_3  S_3   I+R
     freq ( 17 - 17) =        584.0  [cm-1]   --> A_1  D_1  S_1   I+R
     freq ( 18 - 18) =        705.0  [cm-1]   --> A_1  D_1  S_1   I+R

[...]

     Title:
     Phonon dispersions for Si

     bravais-lattice index     =            6
     lattice parameter (alat)  =       9.1370  a.u.
     unit-cell volume          =     512.3005 (a.u.)^3
     number of atoms/cell      =            6
     number of atomic types    =            2
     number of electrons       =        52.00
     number of Kohn-Sham states=           26
     kinetic-energy cutoff     =      75.0000  Ry
     charge density cutoff     =     300.0000  Ry
     Exchange-correlation      = PBE ( 1  4  3  4 0 0)

[...]

     atomic species   valence    mass     pseudopotential
        Sn            14.00   118.71000     Sn( 1.00)
        O              6.00    15.99900     O ( 1.00)

      4 Sym. Ops. (no inversion) found

[...]

     site n.     atom                  positions (alat units)
         1           Sn  tau(   1) = (  -0.0003320  -0.0003320   0.0000000  )
[...]
        k(   30) = (   0.2500000  -0.5000000  -1.4889866), wk =   0.0000000
        k(   31) = (  -0.5000000  -0.5000000   0.0000000), wk =   0.0312500
        k(   32) = (  -0.5000000  -0.5000000  -0.7444933), wk =   0.0000000
        k(   33) = (  -0.5000000  -0.5000000   0.3722466), wk =   0.0625000
        k(   34) = (  -0.5000000  -0.5000000  -0.3722466), wk =   0.0000000
        k(   35) = (  -0.5000000  -0.5000000  -0.7444933), wk =   0.0312500
        k(   36) = (  -0.5000000  -0.5000000  -1.4889866), wk =   0.0000000
        k(   37) = (   0.2500000  -0.2500000   0.0000000), wk =   0.0625000
        k(   38) = (   0.2500000  -0.2500000  -0.7444933), wk =   0.0000000
        k(   39) = (   0.2500000  -0.2500000   0.3722466), wk =   0.1250000
        k(   40) = (   0.2500000  -0.2500000  -0.3722466), wk =   0.0000000
        k(   41) = (   0.2500000  -0.2500000  -0.7444933), wk =   0.0625000
        k(   42) = (   0.2500000  -0.2500000  -1.4889866), wk =   0.0000000

[...]

     The potential is recalculated from file :
     ./_ph0/SnO2.save/charge-density.dat

     Starting wfc are   34 atomic wfcs

     Band Structure Calculation
     Davidson diagonalization with overlap

     ethr =  1.92E-11,  avg # of iterations = 12.1

     End of band structure calculation

          k = 0.0000 0.0000 0.0000 (  5609 PWs)   bands (ev):

   -12.1626 -11.5450 -11.3470 -11.3189 -11.3189 -11.2385 -11.2181 -11.1520
   -11.1404 -11.1404  -9.6859  -7.9707  -7.9707  -6.5142   0.9520   5.0331
     5.0331   5.1380   6.0354   6.8925   6.9464   7.6277   7.6277   8.1988
     8.1988   8.9050

[...]

          k =-0.5000-0.5000 0.0000 (  5660 PWs)   bands (ev):

[...]

     highest occupied level (ev):     8.9050

     Writing output data file SnO2.save

[...]

     freq (  1 -  1) =        125.4  [cm-1]   --> B_1  D_3  S_3
     freq (  2 -  2) =        125.7  [cm-1]   --> B_2  D_4  S_4
     freq (  3 -  3) =        173.2  [cm-1]   --> A_1  D_1  S_1
     freq (  4 -  4) =        173.3  [cm-1]   --> A_2  D_2  S_2
     freq (  5 -  5) =        234.4  [cm-1]   --> B_1  D_3  S_3
     freq (  6 -  6) =        234.6  [cm-1]   --> B_2  D_4  S_4
     freq (  7 -  7) =        245.0  [cm-1]   --> B_1  D_3  S_3
     freq (  8 -  8) =        245.2  [cm-1]   --> A_2  D_2  S_2
     freq (  9 -  9) =        280.1  [cm-1]   --> B_2  D_4  S_4
     freq ( 10 - 10) =        280.1  [cm-1]   --> A_1  D_1  S_1
     freq ( 11 - 11) =        523.3  [cm-1]   --> A_1  D_1  S_1
     freq ( 12 - 12) =        523.3  [cm-1]   --> A_2  D_2  S_2
     freq ( 13 - 13) =        525.2  [cm-1]   --> B_1  D_3  S_3
     freq ( 14 - 14) =        525.2  [cm-1]   --> B_2  D_4  S_4
     freq ( 15 - 15) =        570.9  [cm-1]   --> A_1  D_1  S_1
     freq ( 16 - 16) =        570.9  [cm-1]   --> B_2  D_4  S_4
     freq ( 17 - 17) =        650.8  [cm-1]   --> A_1  D_1  S_1
     freq ( 18 - 18) =        651.1  [cm-1]   --> B_2  D_4  S_4

[...]

     Mode symmetry, C_s (m)     point group:

[...]

     Representation     1      1 modes -A'  To be done

[...]

     Representation    13      1 modes -A''  To be done

[...]

     freq (  1 -  1) =        107.1  [cm-1]   --> A''
     freq (  2 -  2) =        107.1  [cm-1]   --> A''
     freq (  3 -  3) =        141.3  [cm-1]   --> A'
     freq (  4 -  4) =        141.7  [cm-1]   --> A'
     freq (  5 -  5) =        176.5  [cm-1]   --> A'
     freq (  6 -  6) =        176.5  [cm-1]   --> A'
     freq (  7 -  7) =        216.9  [cm-1]   --> A'
     freq (  8 -  8) =        216.9  [cm-1]   --> A'
     freq (  9 -  9) =        316.4  [cm-1]   --> A'
     freq ( 10 - 10) =        316.5  [cm-1]   --> A'
     freq ( 11 - 11) =        430.8  [cm-1]   --> A''
     freq ( 12 - 12) =        430.8  [cm-1]   --> A''
     freq ( 13 - 13) =        500.0  [cm-1]   --> A''
     freq ( 14 - 14) =        500.1  [cm-1]   --> A''
     freq ( 15 - 15) =        555.0  [cm-1]   --> A'
     freq ( 16 - 16) =        555.1  [cm-1]   --> A'
     freq ( 17 - 17) =        702.2  [cm-1]   --> A'
     freq ( 18 - 18) =        702.2  [cm-1]   --> A'

[...]

     Representation     9      1 modes -A'  To be done

[...]

     Representation    18      1 modes -A''  To be done

[...]

     Mode symmetry, C_s (m)     point group:

     freq (  1 -  1) =        118.4  [cm-1]   --> A'
     freq (  2 -  2) =        118.5  [cm-1]   --> A''
     freq (  3 -  3) =        146.8  [cm-1]   --> A'
     freq (  4 -  4) =        146.8  [cm-1]   --> A''
     freq (  5 -  5) =        222.2  [cm-1]   --> A'
     freq (  6 -  6) =        222.2  [cm-1]   --> A''
     freq (  7 -  7) =        233.5  [cm-1]   --> A'
     freq (  8 -  8) =        233.6  [cm-1]   --> A''
     freq (  9 -  9) =        307.8  [cm-1]   --> A''
     freq ( 10 - 10) =        307.9  [cm-1]   --> A'
     freq ( 11 - 11) =        452.0  [cm-1]   --> A'
     freq ( 12 - 12) =        452.0  [cm-1]   --> A''
     freq ( 13 - 13) =        525.5  [cm-1]   --> A'
     freq ( 14 - 14) =        525.5  [cm-1]   --> A''
     freq ( 15 - 15) =        596.3  [cm-1]   --> A'
     freq ( 16 - 16) =        596.3  [cm-1]   --> A''
     freq ( 17 - 17) =        656.0  [cm-1]   --> A'
     freq ( 18 - 18) =        656.0  [cm-1]   --> A''

[...]

     Calculation of q =   -0.5000000  -0.5000000  -0.7444933

     Title:
     Phonon dispersions for Si

     bravais-lattice index     =            6
     lattice parameter (alat)  =       9.1370  a.u.
     unit-cell volume          =     512.3005 (a.u.)^3
     number of atoms/cell      =            6
     number of atomic types    =            2
     number of electrons       =        52.00
     number of Kohn-Sham states=           26
     kinetic-energy cutoff     =      75.0000  Ry
     charge density cutoff     =     300.0000  Ry
     Exchange-correlation      = PBE ( 1  4  3  4 0 0)

[...]

     atomic species   valence    mass     pseudopotential
        Sn            14.00   118.71000     Sn( 1.00)
        O              6.00    15.99900     O ( 1.00)

      4 Sym. Ops. (no inversion) found

[...]

     site n.     atom                  positions (alat units)
         1           Sn  tau(   1) = (  -0.0003320  -0.0003320   0.0000000  )
         2           Sn  tau(   2) = (   0.4996675   0.4996675   0.3357989  )
         3           O   tau(   3) = (   0.8063692   0.1929618   0.3357989  )
         4           O   tau(   4) = (   0.1929618   0.8063692   0.3357989  )
         5           O   tau(   5) = (   0.3063705   0.3063705   0.0000000  )
         6           O   tau(   6) = (   0.6929630   0.6929630   0.0000000  )

     number of k points=    42
                       cart. coord. in units 2pi/alat
        k(    1) = (   0.0000000   0.0000000   0.0000000), wk =   0.0312500
        k(    2) = (  -0.5000000  -0.5000000  -0.7444933), wk =   0.0000000
        k(    3) = (   0.0000000   0.0000000   0.3722466), wk =   0.0625000
        k(    4) = (  -0.5000000  -0.5000000  -0.3722466), wk =   0.0000000
        k(    5) = (   0.0000000   0.0000000  -0.7444933), wk =   0.0312500
        k(    6) = (  -0.5000000  -0.5000000  -1.4889866), wk =   0.0000000
        k(    7) = (   0.0000000   0.2500000   0.0000000), wk =   0.1250000
        k(    8) = (  -0.5000000  -0.2500000  -0.7444933), wk =   0.0000000
        k(    9) = (   0.0000000   0.2500000   0.3722466), wk =   0.2500000
        k(   10) = (  -0.5000000  -0.2500000  -0.3722466), wk =   0.0000000
        k(   11) = (   0.0000000   0.2500000  -0.7444933), wk =   0.1250000
        k(   12) = (  -0.5000000  -0.2500000  -1.4889866), wk =   0.0000000
        k(   13) = (   0.0000000  -0.5000000   0.0000000), wk =   0.0625000
        k(   14) = (  -0.5000000  -1.0000000  -0.7444933), wk =   0.0000000
        k(   15) = (   0.0000000  -0.5000000   0.3722466), wk =   0.1250000
        k(   16) = (  -0.5000000  -1.0000000  -0.3722466), wk =   0.0000000
        k(   17) = (   0.0000000  -0.5000000  -0.7444933), wk =   0.0625000
        k(   18) = (  -0.5000000  -1.0000000  -1.4889866), wk =   0.0000000
        k(   19) = (   0.2500000   0.2500000   0.0000000), wk =   0.0625000
        k(   20) = (  -0.2500000  -0.2500000  -0.7444933), wk =   0.0000000
        k(   21) = (   0.2500000   0.2500000   0.3722466), wk =   0.1250000
        k(   22) = (  -0.2500000  -0.2500000  -0.3722466), wk =   0.0000000
        k(   23) = (   0.2500000   0.2500000  -0.7444933), wk =   0.0625000
        k(   24) = (  -0.2500000  -0.2500000  -1.4889866), wk =   0.0000000
        k(   25) = (   0.2500000  -0.5000000   0.0000000), wk =   0.1250000
        k(   26) = (  -0.2500000  -1.0000000  -0.7444933), wk =   0.0000000
        k(   27) = (   0.2500000  -0.5000000   0.3722466), wk =   0.2500000
        k(   28) = (  -0.2500000  -1.0000000  -0.3722466), wk =   0.0000000
        k(   29) = (   0.2500000  -0.5000000  -0.7444933), wk =   0.1250000
        k(   30) = (  -0.2500000  -1.0000000  -1.4889866), wk =   0.0000000
        k(   31) = (  -0.5000000  -0.5000000   0.0000000), wk =   0.0312500
        k(   32) = (  -1.0000000  -1.0000000  -0.7444933), wk =   0.0000000
        k(   33) = (  -0.5000000  -0.5000000   0.3722466), wk =   0.0625000
        k(   34) = (  -1.0000000  -1.0000000  -0.3722466), wk =   0.0000000
        k(   35) = (  -0.5000000  -0.5000000  -0.7444933), wk =   0.0312500
        k(   36) = (  -1.0000000  -1.0000000  -1.4889866), wk =   0.0000000
        k(   37) = (   0.2500000  -0.2500000   0.0000000), wk =   0.0625000
        k(   38) = (  -0.2500000  -0.7500000  -0.7444933), wk =   0.0000000
        k(   39) = (   0.2500000  -0.2500000   0.3722466), wk =   0.1250000
        k(   40) = (  -0.2500000  -0.7500000  -0.3722466), wk =   0.0000000
        k(   41) = (   0.2500000  -0.2500000  -0.7444933), wk =   0.0625000
        k(   42) = (  -0.2500000  -0.7500000  -1.4889866), wk =   0.0000000

     Check: negative/imaginary core charge=   -0.000002    0.000000

     The potential is recalculated from file :
     ./_ph0/SnO2.save/charge-density.dat

     Starting wfc are   34 atomic wfcs

     Band Structure Calculation
     Davidson diagonalization with overlap

     ethr =  1.92E-11,  avg # of iterations = 12.1

     End of band structure calculation

[...]

          k = 0.2500-0.2500-0.7445 (  5618 PWs)   bands (ev):

[...]

          k =-0.2500-0.7500-1.4890 (  5644 PWs)   bands (ev):

   -12.0375 -11.7201 -11.3389 -11.3199 -11.3122 -11.3078 -11.1990 -11.1658
   -11.1481 -11.1400  -9.2878  -8.0564  -8.0220  -6.8412   1.7902   3.9375
     5.0821   5.5257   6.4141   6.5477   6.6397   7.3105   7.5926   7.6908
     8.1406   8.4626

     highest occupied level (ev):     8.9050

     Writing output data file SnO2.save

     Phonon dispersions for Si

     bravais-lattice index     =            6
     lattice parameter (alat)  =       9.1370  a.u.
     unit-cell volume          =     512.3005 (a.u.)^3
     number of atoms/cell      =            6
     number of atomic types    =            2
     kinetic-energy cut-off    =      75.0000  Ry
     charge density cut-off    =     300.0000  Ry
     convergence threshold     =      1.0E-14
     beta                      =       0.7000
     number of iterations used =            4
     Exchange-correlation      = PBE ( 1  4  3  4 0 0)

     celldm(1)=    9.13703  celldm(2)=    1.00000  celldm(3)=    0.67160
     celldm(4)=    0.00000  celldm(5)=    0.00000  celldm(6)=    0.00000

     crystal axes: (cart. coord. in units of alat)
               a(1) = (  1.0000  0.0000  0.0000 )
               a(2) = (  0.0000  1.0000  0.0000 )
               a(3) = (  0.0000  0.0000  0.6716 )

     reciprocal axes: (cart. coord. in units 2 pi/alat)
               b(1) = (  1.0000  0.0000  0.0000 )
               b(2) = (  0.0000  1.0000  0.0000 )
               b(3) = (  0.0000  0.0000  1.4890 )

     Atoms inside the unit cell:

     Cartesian axes

     site n.  atom      mass           positions (alat units)
        1     Sn 118.7100   tau(    1) = (   -0.00033   -0.00033    0.00000  )
        2     Sn 118.7100   tau(    2) = (    0.49967    0.49967    0.33580  )
        3     O   15.9990   tau(    3) = (    0.80637    0.19296    0.33580  )
        4     O   15.9990   tau(    4) = (    0.19296    0.80637    0.33580  )
        5     O   15.9990   tau(    5) = (    0.30637    0.30637    0.00000  )
        6     O   15.9990   tau(    6) = (    0.69296    0.69296    0.00000  )

     Computing dynamical matrix for
                    q = (  -0.5000000  -0.5000000  -0.7444933 )

      5 Sym.Ops. (with q -> -q+G )

     G cutoff =  634.4127  (  11237 G-vectors)     FFT grid: ( 54, 54, 36)
     number of k points=    42

     PseudoPot. # 1 for Sn read from file:
     ../../../Pseudo_potentials/Sn_PBE.upf
     MD5 check sum: 78e6386ae56e929f0568ae8bf606a80c
     Pseudo is Norm-conserving + core correction, Zval = 14.0
     Generated using ONCVPSP code by D. R. Hamann
     Using radial grid of 1628 points,  6 beta functions with:
                l(1) =   0
                l(2) =   0
                l(3) =   1
                l(4) =   1
                l(5) =   2
                l(6) =   2

     PseudoPot. # 2 for O  read from file:
     ../../../Pseudo_potentials/O_PBE.upf
     MD5 check sum: 3e3f909f7470e8921608ab6b1f57bbae
     Pseudo is Norm-conserving + core correction, Zval =  6.0
     Generated using ONCVPSP code by D. R. Hamann
     Using radial grid of  936 points,  5 beta functions with:
                l(1) =   0
                l(2) =   0
                l(3) =   1
                l(4) =   1
                l(5) =   2

[...]

     Atomic displacements:
     There are  18 irreducible representations

[...]

     Representation    18      1 modes -B_2  D_4  S_4  To be done

     Alpha used in Ewald sum =   2.7000

[...]

     Representation # 18 mode #  18

     Self-consistent Calculation

[...]

      thresh= 1.923E-08 alpha_mix =  0.700 |ddv_scf|^2 =  7.059E-16

     End of self-consistent calculation

     Convergence has been achieved

     Number of q in the star =    1
     List of q in the star:
          1  -0.500000000  -0.500000000  -0.744493277

     Diagonalizing the dynamical matrix

     q = (   -0.500000000  -0.500000000  -0.744493277 )

     freq (    1) =       2.945580 [THz] =      98.253957 [cm-1]
     freq (    2) =       2.954461 [THz] =      98.550220 [cm-1]
     freq (    3) =       5.645957 [THz] =     188.328861 [cm-1]
     freq (    4) =       5.649415 [THz] =     188.444185 [cm-1]
     freq (    5) =       6.243841 [THz] =     208.272109 [cm-1]
     freq (    6) =       6.265848 [THz] =     209.006197 [cm-1]
     freq (    7) =       7.070402 [THz] =     235.843231 [cm-1]
     freq (    8) =       7.094784 [THz] =     236.656518 [cm-1]
     freq (    9) =       8.710370 [THz] =     290.546657 [cm-1]
     freq (   10) =       8.710592 [THz] =     290.554069 [cm-1]
     freq (   11) =      14.756177 [THz] =     492.213086 [cm-1]
     freq (   12) =      14.758217 [THz] =     492.281125 [cm-1]
     freq (   13) =      15.639115 [THz] =     521.664718 [cm-1]
     freq (   14) =      15.639735 [THz] =     521.685416 [cm-1]
     freq (   15) =      16.011816 [THz] =     534.096699 [cm-1]
     freq (   16) =      16.012557 [THz] =     534.121402 [cm-1]
     freq (   17) =      20.055820 [THz] =     668.990153 [cm-1]
     freq (   18) =      20.061599 [THz] =     669.182899 [cm-1]

     Mode symmetry, C_2v (mm2)  point group:

     freq (  1 -  1) =         98.3  [cm-1]   --> B_1  D_3  S_3
     freq (  2 -  2) =         98.6  [cm-1]   --> B_2  D_4  S_4
     freq (  3 -  3) =        188.3  [cm-1]   --> A_1  D_1  S_1
     freq (  4 -  4) =        188.4  [cm-1]   --> A_2  D_2  S_2
     freq (  5 -  5) =        208.3  [cm-1]   --> A_2  D_2  S_2
     freq (  6 -  6) =        209.0  [cm-1]   --> B_1  D_3  S_3
     freq (  7 -  7) =        235.8  [cm-1]   --> B_2  D_4  S_4
     freq (  8 -  8) =        236.7  [cm-1]   --> B_1  D_3  S_3
     freq (  9 -  9) =        290.5  [cm-1]   --> A_1  D_1  S_1
     freq ( 10 - 10) =        290.6  [cm-1]   --> B_2  D_4  S_4
     freq ( 11 - 11) =        492.2  [cm-1]   --> B_2  D_4  S_4
     freq ( 12 - 12) =        492.3  [cm-1]   --> A_1  D_1  S_1
     freq ( 13 - 13) =        521.7  [cm-1]   --> A_1  D_1  S_1
     freq ( 14 - 14) =        521.7  [cm-1]   --> A_2  D_2  S_2
     freq ( 15 - 15) =        534.1  [cm-1]   --> B_1  D_3  S_3
     freq ( 16 - 16) =        534.1  [cm-1]   --> B_2  D_4  S_4
     freq ( 17 - 17) =        669.0  [cm-1]   --> A_1  D_1  S_1
     freq ( 18 - 18) =        669.2  [cm-1]   --> B_2  D_4  S_4

     General routines

     Parallel routines

     INITIALIZATION:

     DYNAMICAL MATRIX:

      General routines

   This run was terminated on:  20:44:43  22Apr2018

   JOB DONE.