.Version 8.6.3 of ABINIT

 ABINIT is a project of the Universite Catholique de Louvain,
 Corning Inc. and other collaborators, see ~abinit/doc/developers/contributors.txt .
 Please read ~abinit/doc/users/acknowledgments.html for suggested
 acknowledgments of the ABINIT effort.

.Starting date : Wed  9 May 2018.
- ( at 22h42 )

- input  file    -> AI_relax.in
- output file    -> AI_relax.out
- root for input  files -> relax_xi
- root for output files -> relax_xo

 Symmetries : space group Am m 2 (# 38); Bravais oC (1-face-center ortho.)
     intxc =       0    ionmov =       2      iscf =       7    lmnmax =       6
     lnmax =       6     mgfft =      54  mpssoang =       3    mqgrid =    3001
     natom =       6  nloc_mem =       1    nspden =       1   nspinor =       1
    nsppol =       1      nsym =       4    n1xccc =    2501    ntypat =       2
    occopt =       1   xclevel =       2
-    mband =          27        mffmem =           1         mkmem =          21
       mpw =        6456          nfft =      104976          nkpt =          21
  Rough estimation (10% accuracy) of disk space for files :

------------- Echo of variables that govern the present computation ------------
-
- outvars: echo of selected default values
-   iomode0 =  0 , fftalg0 =112 , wfoptalg0 =  0
-
- outvars: echo of global parameters not present in the input file
-  max_nthreads =    0
-
 -outvars: echo values of preprocessed input variables --------
            acell      9.1100000000E+00  9.1100000000E+00  6.1037000000E+00 Bohr
              amu      1.18710000E+02  1.59994000E+01
           diemac      1.20000000E+01
          dilatmx      1.05000000E+00
             ecut      3.75000000E+01 Hartree
           ecutsm      5.00000000E-01 Hartree
-          fftalg         112
           ionmov           2
           istwfk        2    0    3    0    0    0    7    0    0    0
                         0    0    0    0    4    0    5    0    0    0
                         9
              ixc          11
              kpt      0.00000000E+00  0.00000000E+00  0.00000000E+00
                       2.50000000E-01  0.00000000E+00  0.00000000E+00
                       5.00000000E-01  0.00000000E+00  0.00000000E+00
                       2.50000000E-01  2.50000000E-01  0.00000000E+00
                       5.00000000E-01  2.50000000E-01  0.00000000E+00
                      -2.50000000E-01  2.50000000E-01  0.00000000E+00
                       5.00000000E-01  5.00000000E-01  0.00000000E+00
                       0.00000000E+00  0.00000000E+00  2.50000000E-01
                       2.50000000E-01  0.00000000E+00  2.50000000E-01
                       5.00000000E-01  0.00000000E+00  2.50000000E-01
                       2.50000000E-01  2.50000000E-01  2.50000000E-01
                       5.00000000E-01  2.50000000E-01  2.50000000E-01
                      -2.50000000E-01  2.50000000E-01  2.50000000E-01
                       5.00000000E-01  5.00000000E-01  2.50000000E-01
                       0.00000000E+00  0.00000000E+00  5.00000000E-01
                       2.50000000E-01  0.00000000E+00  5.00000000E-01
                       5.00000000E-01  0.00000000E+00  5.00000000E-01
                       2.50000000E-01  2.50000000E-01  5.00000000E-01
                       5.00000000E-01  2.50000000E-01  5.00000000E-01
                      -2.50000000E-01  2.50000000E-01  5.00000000E-01
                       5.00000000E-01  5.00000000E-01  5.00000000E-01
         kptrlatt        4    0    0      0    4    0      0    0    4
          kptrlen      2.44148000E+01
P           mkmem          21
            natom           6
            nband          27
            ngfft          54      54      36
             nkpt          21
            nstep         100
             nsym           4
            ntime         100
           ntypat           2
              occ      2.000000  2.000000  2.000000  2.000000  2.000000  2.000000
                       2.000000  2.000000  2.000000  2.000000  2.000000  2.000000
                       2.000000  2.000000  2.000000  2.000000  2.000000  2.000000
                       2.000000  2.000000  2.000000  2.000000  2.000000  2.000000
                       2.000000  2.000000  0.000000
          optcell           2
          spgroup          38
           symrel      1  0  0   0  1  0   0  0  1       1  0  0   0  1  0   0  0 -1
                       0  1  0   1  0  0   0  0  1       0  1  0   1  0  0   0  0 -1
           toldfe      5.00000000E-13 Hartree
           tolmxf      1.00000000E-09
            typat      1  1  2  2  2  2
              wtk        0.01563    0.06250    0.03125    0.03125    0.06250    0.03125
                         0.01563    0.03125    0.12500    0.06250    0.06250    0.12500
                         0.06250    0.03125    0.01563    0.06250    0.03125    0.03125
                         0.06250    0.03125    0.01563
           xangst      0.0000000000E+00  0.0000000000E+00  0.0000000000E+00
                       2.4104021851E+00  2.4104021851E+00  1.6149694640E+00
                       3.8855683224E+00  9.3041524346E-01  1.6149694640E+00
                       9.3041524346E-01  3.8855683224E+00  1.6149694640E+00
                       1.4751661373E+00  1.4751661373E+00  0.0000000000E+00
                       3.3408174286E+00  3.3408174286E+00  0.0000000000E+00
            xcart      0.0000000000E+00  0.0000000000E+00  0.0000000000E+00
                       4.5550000000E+00  4.5550000000E+00  3.0518500000E+00
                       7.3426600000E+00  1.7582300000E+00  3.0518500000E+00
                       1.7582300000E+00  7.3426600000E+00  3.0518500000E+00
                       2.7876600000E+00  2.7876600000E+00  0.0000000000E+00
                       6.3132300000E+00  6.3132300000E+00  0.0000000000E+00
             xred      0.0000000000E+00  0.0000000000E+00  0.0000000000E+00
                       5.0000000000E-01  5.0000000000E-01  5.0000000000E-01
                       8.0600000000E-01  1.9300000000E-01  5.0000000000E-01
                       1.9300000000E-01  8.0600000000E-01  5.0000000000E-01
                       3.0600000000E-01  3.0600000000E-01  0.0000000000E+00
                       6.9300000000E-01  6.9300000000E-01  0.0000000000E+00
            znucl       50.00000    8.00000

 chkinp: Checking input parameters for consistency.

== DATASET  1 ==================================================================
-   nproc =    1

 Real(R)+Recip(G) space primitive vectors, cartesian coordinates (Bohr,Bohr^-1):
 R(1)=  9.1100000  0.0000000  0.0000000  G(1)=  0.1097695  0.0000000  0.0000000
 R(2)=  0.0000000  9.1100000  0.0000000  G(2)=  0.0000000  0.1097695  0.0000000
 R(3)=  0.0000000  0.0000000  6.1037000  G(3)=  0.0000000  0.0000000  0.1638351
 Unit cell volume ucvol=  5.0655888E+02 bohr^3
 Angles (23,13,12)=  9.00000000E+01  9.00000000E+01  9.00000000E+01 degrees

 getcut: wavevector=  0.0000  0.0000  0.0000  ngfft=  54  54  36
         ecut(hartree)=     41.344   => boxcut(ratio)=   2.03770

--- Pseudopotential description ------------------------------------------------
- pspini: atom type   1  psp file is ../Pseudo_potentials/Sn_PBE.psp8
- pspatm: opening atomic psp file    ../Pseudo_potentials/Sn_PBE.psp8
- Sn    ONCVPSP-3.2.3.1  r_core=   2.27326   2.62311   1.85601
- 50.00000  14.00000    170510                znucl, zion, pspdat
    8   11    2    4       600   0.00000      pspcod,pspxc,lmax,lloc,mmax,r2well
    5.99000000000000    6.50000000000000    0.00000000000000   rchrg,fchrg,qchrg
     nproj     2     2     2
     extension_switch     1
  pspatm : epsatm=   32.65096653
         --- l  ekb(1:nproj) -->
             0    5.582184    0.748969
             1    4.193379    0.727317
             2   -5.282748   -1.526429
 pspatm: atomic psp has been read  and splines computed

- pspini: atom type   2  psp file is ../Pseudo_potentials/O_PBE.psp8
- pspatm: opening atomic psp file    ../Pseudo_potentials/O_PBE.psp8
- O     ONCVPSP-3.2.3.1  r_core=   1.35509   1.45563   1.26150
-  8.00000   6.00000    170504                znucl, zion, pspdat
    8   11    2    4       600   0.00000      pspcod,pspxc,lmax,lloc,mmax,r2well
    5.99000000000000    4.00000000000000    0.00000000000000   rchrg,fchrg,qchrg
     nproj     2     2     1
     extension_switch     1
  pspatm : epsatm=    6.19546011
         --- l  ekb(1:nproj) -->
             0    6.056735    0.824024
             1   -4.717130   -1.149271
             2   -1.331955
 pspatm: atomic psp has been read  and splines computed

   4.68435622E+03                                ecore*ucvol(ha*bohr**3)

_setup2: Arith. and geom. avg. npw (full set) are    6436.547    6436.532

=== [ionmov= 2] Broyden-Fletcher-Goldfard-Shanno method (forces)

--- Iteration: (  1/100) Internal Cycle: (1/1)

---SELF-CONSISTENT-FIELD CONVERGENCE--------------------------------------------

     iter   Etot(hartree)      deltaE(h)  residm     vres2
 ETOT  1  -222.52992647497    -2.225E+02 3.029E-01 7.205E+02
 ETOT  2  -223.62699745180    -1.097E+00 7.887E-02 4.954E+02
 ETOT  3  -223.77838175914    -1.514E-01 8.325E-03 5.699E+01
 ETOT  4  -223.79219209084    -1.381E-02 8.907E-03 4.375E+00
 ETOT  5  -223.79177526342     4.168E-04 1.109E-03 5.596E+00
 ETOT  6  -223.79326103634    -1.486E-03 6.713E-04 8.151E-02
 ETOT  7  -223.79327386409    -1.283E-05 4.737E-04 5.853E-03
 ETOT  8  -223.79327456490    -7.008E-07 3.438E-04 1.941E-03
 ETOT  9  -223.79327486241    -2.975E-07 2.367E-04 3.418E-04
 ETOT 10  -223.79327492761    -6.521E-08 1.693E-04 8.436E-06
 ETOT 11  -223.79327492906    -1.442E-09 1.145E-04 1.459E-06
 ETOT 12  -223.79327492929    -2.341E-10 7.961E-05 1.011E-07
 ETOT 13  -223.79327492931    -2.200E-11 5.381E-05 4.801E-09
 ETOT 14  -223.79327492931    -9.095E-13 3.653E-05 2.899E-10
 ETOT 15  -223.79327492931     2.842E-14 2.493E-05 8.791E-12
 ETOT 16  -223.79327492931     3.126E-13 1.660E-05 2.291E-12

 At SCF step   16, etot is converged :
  for the second time, diff in etot=  3.126E-13 < toldfe=  5.000E-13

 Cartesian components of stress tensor (hartree/bohr^3)
  sigma(1 1)= -5.79891468E-05  sigma(3 2)=  0.00000000E+00
  sigma(2 2)= -5.79891468E-05  sigma(3 1)=  0.00000000E+00
  sigma(3 3)= -1.00042308E-04  sigma(2 1)= -5.54091846E-08

 Integrated electronic density in atomic spheres:
 Atom  Sphere_radius  Integrated_density
    1        2.00000         10.45050529
    2        2.00000         10.45050196
    3        2.00000          6.26675580
    4        2.00000          6.26675580
    5        2.00000          6.26326894
    6        2.00000          6.26351091

---OUTPUT-----------------------------------------------------------------------

 Cartesian coordinates (xcart) [bohr]
  0.00000000000000E+00  0.00000000000000E+00  0.00000000000000E+00
  4.55500000000000E+00  4.55500000000000E+00  3.05185000000000E+00
  7.34266000000000E+00  1.75823000000000E+00  3.05185000000000E+00
  1.75823000000000E+00  7.34266000000000E+00  3.05185000000000E+00
  2.78766000000000E+00  2.78766000000000E+00  0.00000000000000E+00
  6.31323000000000E+00  6.31323000000000E+00  0.00000000000000E+00
[...]
 Scale of Primitive Cell (acell) [bohr]
  9.11000000000000E+00  9.11000000000000E+00  6.10370000000000E+00
 Real space primitive translations (rprimd) [bohr]
  9.11000000000000E+00  0.00000000000000E+00  0.00000000000000E+00
  0.00000000000000E+00  9.11000000000000E+00  0.00000000000000E+00
  0.00000000000000E+00  0.00000000000000E+00  6.10370000000000E+00
 Unitary Cell Volume (ucvol) [Bohr^3]=  5.06558880770000E+02
 Angles (23,13,12)= [degrees]
  9.00000000000000E+01  9.00000000000000E+01  9.00000000000000E+01
 Lengths [Bohr]
  9.11000000000000E+00  9.11000000000000E+00  6.10370000000000E+00
 Stress tensor in cartesian coordinates (strten) [Ha/bohr^3]
 -5.79891468028941E-05 -5.54091845547864E-08  0.00000000000000E+00
 -5.54091845547864E-08 -5.79891468028941E-05  0.00000000000000E+00
  0.00000000000000E+00  0.00000000000000E+00 -1.00042308307197E-04
 Total energy (etotal) [Ha]= -2.23793274929312E+02

[...]

 Difference of energy with previous step (new-old):
           Absolute (Ha)=-1.80883E-04
           Relative     =-8.08258E-07

[...]

 Difference of energy with previous step (new-old):
           Absolute (Ha)= 1.67972E-11
           Relative     = 7.50568E-14

[...]

 Difference of energy with previous step (new-old):
           Absolute (Ha)= 3.09797E-12
           Relative     = 1.38430E-14

--- Iteration: ( 24/100) Internal Cycle: (1/1)

---SELF-CONSISTENT-FIELD CONVERGENCE--------------------------------------------

     iter   Etot(hartree)      deltaE(h)  residm     vres2
 ETOT  1  -223.79350066138    -2.238E+02 9.532E-13 2.180E-12
 ETOT  2  -223.79350066138     1.791E-12 9.385E-13 1.962E-12
 ETOT  3  -223.79350066138    -5.684E-13 1.288E-12 1.949E-13
 ETOT  4  -223.79350066138     1.165E-12 9.368E-13 6.087E-15
 ETOT  5  -223.79350066138    -2.018E-12 1.287E-12 2.343E-15
 ETOT  6  -223.79350066139    -2.814E-12 9.355E-13 3.393E-17
 ETOT  7  -223.79350066138     2.672E-12 1.287E-12 2.850E-18
 ETOT  8  -223.79350066138     3.126E-13 9.345E-13 1.095E-18
 ETOT  9  -223.79350066138     1.791E-12 1.287E-12 2.902E-19
 ETOT 10  -223.79350066138    -4.263E-13 9.338E-13 1.936E-21
 ETOT 11  -223.79350066138    -1.137E-12 1.287E-12 5.793E-22
 ETOT 12  -223.79350066138     5.400E-13 9.332E-13 3.282E-22
 ETOT 13  -223.79350066138     5.684E-14 1.286E-12 2.561E-22
 ETOT 14  -223.79350066138    -2.558E-13 9.327E-13 2.057E-22

 At SCF step   14, etot is converged :
  for the second time, diff in etot=  2.558E-13 < toldfe=  5.000E-13

[...]

 Integrated electronic density in atomic spheres:
 Atom  Sphere_radius  Integrated_density
    1        2.00000         10.44516515
    2        2.00000         10.44486208
    3        2.00000          6.25091546
    4        2.00000          6.25091546
    5        2.00000          6.25188967
    6        2.00000          6.24912078

---OUTPUT-----------------------------------------------------------------------

 Cartesian coordinates (xcart) [bohr]
 -3.01835703412595E-03 -3.01835703412596E-03  0.00000000000000E+00
  4.56447690776650E+00  4.56447690776650E+00  3.06929925061874E+00
  7.36628227031983E+00  1.76254582123865E+00  3.06929925061874E+00
  1.76254582123865E+00  7.36628227031983E+00  3.06929925061874E+00
  2.79882987397179E+00  2.79882987397179E+00  0.00000000000000E+00
  6.33007975454576E+00  6.33007975454576E+00  0.00000000000000E+00
 Reduced coordinates (xred)
 -3.30417240895203E-04 -3.30417240895204E-04  0.00000000000000E+00
  4.99669803453457E-01  4.99669803453457E-01  5.00000000000000E-01
  8.06381296673974E-01  1.92944547325403E-01  5.00000000000000E-01
  1.92944547325403E-01  8.06381296673974E-01  5.00000000000000E-01
  3.06385770217745E-01  3.06385770217745E-01  0.00000000000000E+00
  6.92948999570313E-01  6.92948999570313E-01  0.00000000000000E+00
 Cartesian forces (fcart) [Ha/bohr]; max,rms= 8.45822E-11 4.11307E-11 (free atoms)
 -2.03857269289062E-11 -2.03857269289062E-11 -0.00000000000000E+00
  8.45822192210036E-11  8.45822192210036E-11 -0.00000000000000E+00
  6.02418670198437E-12  3.95511080682799E-11 -0.00000000000000E+00
  3.95511080687034E-11  6.02418670198437E-12 -0.00000000000000E+00
 -5.87834049777756E-11 -5.87834049777756E-11 -0.00000000000000E+00
 -5.09883820841625E-11 -5.09883820841625E-11 -0.00000000000000E+00
 Reduced forces (fred)
  1.86223340237717E-10  1.86223340237717E-10  0.00000000000000E+00
 -7.72657430514262E-10 -7.72657430514262E-10 -0.00000000000000E+00
 -5.50308634515799E-11 -3.61298838895341E-10 -0.00000000000000E+00
 -3.61298838899210E-10 -5.50308634515799E-11 -0.00000000000000E+00
  5.36985610750312E-10  5.36985610750312E-10  0.00000000000000E+00
  4.65778181869286E-10  4.65778181869286E-10  0.00000000000000E+00
 Scale of Primitive Cell (acell) [bohr]
  9.13498651928287E+00  9.13498651928287E+00  6.13859850123749E+00
 Real space primitive translations (rprimd) [bohr]
  9.13498651928287E+00 -2.17614747635408E-08  0.00000000000000E+00
 -2.17614747635408E-08  9.13498651928287E+00  0.00000000000000E+00
  0.00000000000000E+00  0.00000000000000E+00  6.13859850123749E+00
 Unitary Cell Volume (ucvol) [Bohr^3]=  5.12253637025033E+02
 Angles (23,13,12)= [degrees]
  9.00000000000000E+01  9.00000000000000E+01  9.00000002729814E+01
 Lengths [Bohr]
  9.13498651928287E+00  9.13498651928287E+00  6.13859850123749E+00
 Stress tensor in cartesian coordinates (strten) [Ha/bohr^3]
 -1.04277697587918E-13  2.77807806075104E-15  0.00000000000000E+00
  2.77807806075104E-15 -1.04277697587918E-13  0.00000000000000E+00
  0.00000000000000E+00  0.00000000000000E+00 -1.00308303330188E-12
 Total energy (etotal) [Ha]= -2.23793500661382E+02

 Difference of energy with previous step (new-old):
           Absolute (Ha)=-3.12639E-13
           Relative     =-1.39700E-15

 At Broyd/MD step  24, gradients are converged :
  max grad (force/stress) = 1.0031E-10 < tolmxf= 1.0000E-09 ha/bohr (free atoms)

 ----iterations are completed or convergence reached----

 Mean square residual over all n,k,spin=   3.3816E-15; max=  9.3266E-13
 reduced coordinates (array xred) for    6 atoms
      -0.000330417241     -0.000330417241      0.000000000000
       0.499669803453      0.499669803453      0.500000000000
       0.806381296674      0.192944547325      0.500000000000
       0.192944547325      0.806381296674      0.500000000000
       0.306385770218      0.306385770218      0.000000000000
       0.692948999570      0.692948999570      0.000000000000
 rms dE/dt=  1.9961E-05; max dE/dt=  2.4447E-05; dE/dt below (all hartree)
    1       0.000024446772      0.000024446772      0.000000000000
    2       0.000024445813      0.000024445813      0.000000000000
    3       0.000024446530      0.000024446224      0.000000000000
    4       0.000024446224      0.000024446530      0.000000000000
    5       0.000024447122      0.000024447122      0.000000000000
    6       0.000024447051      0.000024447051      0.000000000000

 cartesian coordinates (angstrom) at end:
    1     -0.00159724574985    -0.00159724574985     0.00000000000000
    2      2.41541714872539     2.41541714872539     1.62420320976980
    3      3.89806868949386     0.93269907769504     1.62420320976980
    4      0.93269907769504     3.89806868949386     1.62420320976980
    5      1.48107698002670     1.48107698002670     0.00000000000000
    6      3.34973393466260     3.34973393466260     0.00000000000000

 cartesian forces (hartree/bohr) at end:
    1     -0.00000000002039    -0.00000000002039    -0.00000000000000
    2      0.00000000008458     0.00000000008458    -0.00000000000000
    3      0.00000000000602     0.00000000003955    -0.00000000000000
    4      0.00000000003955     0.00000000000602    -0.00000000000000
    5     -0.00000000005878    -0.00000000005878    -0.00000000000000
    6     -0.00000000005099    -0.00000000005099    -0.00000000000000
 frms,max,avg= 4.1130706E-11 8.4582219E-11  -2.676E-06 -2.676E-06  0.000E+00 h/b

 cartesian forces (eV/Angstrom) at end:
    1     -0.00000000104828    -0.00000000104828    -0.00000000000000
    2      0.00000000434939     0.00000000434939    -0.00000000000000
    3      0.00000000030978     0.00000000203380    -0.00000000000000
    4      0.00000000203380     0.00000000030978    -0.00000000000000
    5     -0.00000000302276    -0.00000000302276    -0.00000000000000
    6     -0.00000000262193    -0.00000000262193    -0.00000000000000
 frms,max,avg= 2.1150257E-09 4.3493922E-09  -1.376E-04 -1.376E-04  0.000E+00 e/A
 length scales=  9.134986519283  9.134986519283  6.138598501237 bohr
              =  4.834026666781  4.834026666781  3.248406419540 angstroms
 prteigrs : about to open file relax_xo_EIG
 Fermi (or HOMO) energy (hartree) =   0.15146   Average Vxc (hartree)=  -0.40912
 Eigenvalues (hartree) for nkpt=  21  k points:
 kpt#   1, nband= 27, wtk=  0.01563, kpt=  0.0000  0.0000  0.0000 (reduced coord)
  -0.62275   -0.60002   -0.59277   -0.59174   -0.59174   -0.58881   -0.58804   -0.58561
  -0.58518   -0.58518   -0.53174   -0.46868   -0.46868   -0.41513   -0.14076    0.00925
   0.00925    0.01290    0.04601    0.07756    0.07945    0.10448    0.10448    0.12553
   0.12553    0.15146    0.17324
 prteigrs : prtvol=0 or 1, do not print more k-points.

 Components of total free energy (in Hartree) :

    Kinetic energy  =  1.39789730377316E+02
    Hartree energy  =  5.07557009608189E+01
    XC energy       = -6.10363555581397E+01
    Ewald energy    = -1.50713010635876E+02
    PspCore energy  =  9.14460314754056E+00
    Loc. psp. energy= -1.55673905361054E+02
    NL   psp  energy= -5.60602635919870E+01
    >>>>>>>>> Etotal= -2.23793500661382E+02

 Other information on the energy :
    Total energy(eV)= -6.08973085187002E+03 ; Band energy (Ha)=  -1.4547313563E+01
 rms coord change=  2.3993E-04   atom, delta coord (reduced):
     1       -0.000330417241     -0.000330417241      0.000000000000
     2       -0.000330196547     -0.000330196547      0.000000000000
     3        0.000381296674     -0.000055452675      0.000000000000
     4       -0.000055452675      0.000381296674      0.000000000000
     5        0.000385770218      0.000385770218      0.000000000000
     6       -0.000051000430     -0.000051000430      0.000000000000

 Cartesian components of stress tensor (hartree/bohr^3)
  sigma(1 1)= -1.04277698E-13  sigma(3 2)=  0.00000000E+00
  sigma(2 2)= -1.04277698E-13  sigma(3 1)=  0.00000000E+00
  sigma(3 3)= -1.00308303E-12  sigma(2 1)=  2.77807806E-15

-Cartesian components of stress tensor (GPa)         [Pressure=  1.1883E-08 GPa]
- sigma(1 1)= -3.06795527E-09  sigma(3 2)=  0.00000000E+00
- sigma(2 2)= -3.06795527E-09  sigma(3 1)=  0.00000000E+00
- sigma(3 3)= -2.95117168E-08  sigma(2 1)=  8.17338646E-11

== END DATASET(S) ==============================================================

 -outvars: echo values of variables after computation  --------
            acell      9.1349865193E+00  9.1349865193E+00  6.1385985012E+00 Bohr
              amu      1.18710000E+02  1.59994000E+01
           diemac      1.20000000E+01
          dilatmx      1.05000000E+00
             ecut      3.75000000E+01 Hartree
           ecutsm      5.00000000E-01 Hartree
           etotal     -2.2379350066E+02
            fcart     -2.0385726929E-11 -2.0385726929E-11 -0.0000000000E+00
                       8.4582219221E-11  8.4582219221E-11 -0.0000000000E+00
                       6.0241867020E-12  3.9551108068E-11 -0.0000000000E+00
                       3.9551108069E-11  6.0241867020E-12 -0.0000000000E+00
                      -5.8783404978E-11 -5.8783404978E-11 -0.0000000000E+00
                      -5.0988382084E-11 -5.0988382084E-11 -0.0000000000E+00
-          fftalg         112
           ionmov           2
           istwfk        2    0    3    0    0    0    7    0    0    0
                         0    0    0    0    4    0    5    0    0    0
                         9
              ixc          11
              kpt      0.00000000E+00  0.00000000E+00  0.00000000E+00
                       2.50000000E-01  0.00000000E+00  0.00000000E+00
                       5.00000000E-01  0.00000000E+00  0.00000000E+00
                       2.50000000E-01  2.50000000E-01  0.00000000E+00
                       5.00000000E-01  2.50000000E-01  0.00000000E+00
                      -2.50000000E-01  2.50000000E-01  0.00000000E+00
                       5.00000000E-01  5.00000000E-01  0.00000000E+00
                       0.00000000E+00  0.00000000E+00  2.50000000E-01
                       2.50000000E-01  0.00000000E+00  2.50000000E-01
                       5.00000000E-01  0.00000000E+00  2.50000000E-01
                       2.50000000E-01  2.50000000E-01  2.50000000E-01
                       5.00000000E-01  2.50000000E-01  2.50000000E-01
                      -2.50000000E-01  2.50000000E-01  2.50000000E-01
                       5.00000000E-01  5.00000000E-01  2.50000000E-01
                       0.00000000E+00  0.00000000E+00  5.00000000E-01
                       2.50000000E-01  0.00000000E+00  5.00000000E-01
                       5.00000000E-01  0.00000000E+00  5.00000000E-01
                       2.50000000E-01  2.50000000E-01  5.00000000E-01
                       5.00000000E-01  2.50000000E-01  5.00000000E-01
                      -2.50000000E-01  2.50000000E-01  5.00000000E-01
                       5.00000000E-01  5.00000000E-01  5.00000000E-01
         kptrlatt        4    0    0      0    4    0      0    0    4
          kptrlen      2.44148000E+01
P           mkmem          21
            natom           6
            nband          27
            ngfft          54      54      36
             nkpt          21
            nstep         100
             nsym           4
            ntime         100
           ntypat           2
              occ      2.000000  2.000000  2.000000  2.000000  2.000000  2.000000
                       2.000000  2.000000  2.000000  2.000000  2.000000  2.000000
                       2.000000  2.000000  2.000000  2.000000  2.000000  2.000000
                       2.000000  2.000000  2.000000  2.000000  2.000000  2.000000
                       2.000000  2.000000  0.000000
          optcell           2
            rprim      1.0000000000E+00 -2.3822120282E-09  0.0000000000E+00
                      -2.3822120282E-09  1.0000000000E+00  0.0000000000E+00
                       0.0000000000E+00  0.0000000000E+00  1.0000000000E+00
          spgroup          38
           strten     -1.0427769759E-13 -1.0427769759E-13 -1.0030830333E-12
                       0.0000000000E+00  0.0000000000E+00  2.7780780608E-15
           symrel      1  0  0   0  1  0   0  0  1       1  0  0   0  1  0   0  0 -1
                       0  1  0   1  0  0   0  0  1       0  1  0   1  0  0   0  0 -1
           toldfe      5.00000000E-13 Hartree
           tolmxf      1.00000000E-09
            typat      1  1  2  2  2  2
              wtk        0.01563    0.06250    0.03125    0.03125    0.06250    0.03125
                         0.01563    0.03125    0.12500    0.06250    0.06250    0.12500
                         0.06250    0.03125    0.01563    0.06250    0.03125    0.03125
                         0.06250    0.03125    0.01563
           xangst     -1.5972457498E-03 -1.5972457498E-03  0.0000000000E+00
                       2.4154171487E+00  2.4154171487E+00  1.6242032098E+00
                       3.8980686895E+00  9.3269907770E-01  1.6242032098E+00
                       9.3269907770E-01  3.8980686895E+00  1.6242032098E+00
                       1.4810769800E+00  1.4810769800E+00  0.0000000000E+00
                       3.3497339347E+00  3.3497339347E+00  0.0000000000E+00
            xcart     -3.0183570341E-03 -3.0183570341E-03  0.0000000000E+00
                       4.5644769078E+00  4.5644769078E+00  3.0692992506E+00
                       7.3662822703E+00  1.7625458212E+00  3.0692992506E+00
                       1.7625458212E+00  7.3662822703E+00  3.0692992506E+00
                       2.7988298740E+00  2.7988298740E+00  0.0000000000E+00
                       6.3300797545E+00  6.3300797545E+00  0.0000000000E+00
             xred     -3.3041724090E-04 -3.3041724090E-04  0.0000000000E+00
                       4.9966980345E-01  4.9966980345E-01  5.0000000000E-01
                       8.0638129667E-01  1.9294454733E-01  5.0000000000E-01
                       1.9294454733E-01  8.0638129667E-01  5.0000000000E-01
                       3.0638577022E-01  3.0638577022E-01  0.0000000000E+00
                       6.9294899957E-01  6.9294899957E-01  0.0000000000E+00
            znucl       50.00000    8.00000

- Timing analysis has been suppressed with timopt=0

 Suggested references for the acknowledgment of ABINIT usage.

 Calculation completed.
.Delivered   0 WARNINGs and   1 COMMENTs to log file.