.Version 8.6.3 of ABINIT

 ABINIT is a project of the Universite Catholique de Louvain,
 Corning Inc. and other collaborators, see ~abinit/doc/developers/contributors.txt .
 Please read ~abinit/doc/users/acknowledgments.html for suggested
 acknowledgments of the ABINIT effort.

.Starting date : Wed  9 May 2018.
- ( at 22h42 )

 === Build Information ===
  Version       : 8.6.3
  Build target  : x86_64_linux_gnu4.9
  Build date    : 20180306

 === Optimizations ===
  Debug level        : basic
  Optimization level : standard
  Architecture       : intel_xeon

 === Multicore ===
  Parallel build : yes
  Parallel I/O   : yes
  openMP support : no
  GPU support    : no

 === Connectors / Fallbacks ===
  Connectors on : yes
  Fallbacks on  : yes
  FFT flavor    : none
  LINALG flavor : netlib-fallback
  MATH flavor   : none
  TIMER flavor  : abinit
  TRIO flavor   : netcdf-fallback

 === Experimental features ===
  Bindings            : @enable_bindings@
  Exports             : no
  GW double-precision : yes

 Default optimizations:
   -O2 -mtune=native -march=native

 Optimizations for 20_datashare:
   -O0

 Optimizations for 43_ptgroups:
   -O0

 CPP options activated during the build:

                    CC_GNU                   CXX_GNU                    FC_GNU

 HAVE_FC_ALLOCATABLE_DT...             HAVE_FC_ASYNC         HAVE_FC_BACKTRACE

  HAVE_FC_COMMAND_ARGUMENT      HAVE_FC_COMMAND_LINE        HAVE_FC_CONTIGUOUS

           HAVE_FC_CPUTIME              HAVE_FC_EXIT             HAVE_FC_FLUSH

             HAVE_FC_GAMMA            HAVE_FC_GETENV          HAVE_FC_INT_QUAD

             HAVE_FC_IOMSG     HAVE_FC_ISO_C_BINDING  HAVE_FC_ISO_FORTRAN_2008

        HAVE_FC_LONG_LINES        HAVE_FC_MOVE_ALLOC           HAVE_FC_PRIVATE

         HAVE_FC_PROTECTED         HAVE_FC_STREAM_IO            HAVE_FC_SYSTEM

          HAVE_FORTRAN2003               HAVE_GW_DPC        HAVE_LIBPAW_ABINIT

                 HAVE_MPI2       HAVE_MPI_IALLREDUCE        HAVE_MPI_IALLTOALL

       HAVE_MPI_IALLTOALLV        HAVE_MPI_INTEGER16               HAVE_MPI_IO

 HAVE_MPI_TYPE_CREATE_S...               HAVE_NETCDF             HAVE_OS_LINUX

         HAVE_TIMER_ABINIT              USE_MACROAVE

- input  file    -> AI_relax.in
- output file    -> AI_relax.out
- root for input  files -> relax_xi
- root for output files -> relax_xo

-instrng: 45 lines of input have been read from file AI_relax.in

 Please give name of formatted atomic psp file
 iofn2 : for atom type 1, psp file is ../Pseudo_potentials/Sn_PBE.psp8

 Please give name of formatted atomic psp file
 iofn2 : for atom type 2, psp file is ../Pseudo_potentials/O_PBE.psp8
  read the values zionpsp= 14.0 , pspcod=   8 , lmax=   2
  read the values zionpsp=  6.0 , pspcod=   8 , lmax=   2

 inpspheads: deduce mpsang = 3, n1xccc = 2501.
 invars1 : treat image number: 1

 symlatt : the Bravais lattice is tP (primitive tetragonal)
  xred   is defined in input file
 ingeo : takes atomic coordinates from input array xred
 symfind : exit, nsym=4
   symrel matrices, symafm and tnons are :
   1       1   0   0     0   1   0     0   0   1       1      0.0000  0.0000  0.0000
   2       1   0   0     0   1   0     0   0  -1       1      0.0000  0.0000  0.0000
   3       0   1   0     1   0   0     0   0   1       1      0.0000  0.0000  0.0000
   4       0   1   0     1   0   0     0   0  -1       1      0.0000  0.0000  0.0000

 symlatt : the Bravais lattice is tP (primitive tetragonal)

 symlatt : the Bravais lattice is tP (primitive tetragonal)

--- !COMMENT
src_file: symbrav.F90
src_line: 201
message: |
    The Bravais lattice determined only from the primitive
    vectors, bravais(1)=  4, is more symmetric
    than the real one, iholohedry=  3, obtained by taking into
    account the atomic positions. Start deforming the primitive vector set.
...

 symlatt : the Bravais lattice is oC (one-face-centered orthorhombic)
 symspgr : spgroup=  38  Am m 2   (=C2v^14)
 ingeo : angdeg(1:3)=   90.00000000   90.00000000   90.00000000
 invars2: take the default value of fband=  1.25000000E-01
 chkneu : initialized the occupation numbers for occopt=    1, spin-unpolarized or antiferromagnetic case :
  2.00  2.00  2.00  2.00  2.00  2.00  2.00  2.00  2.00  2.00  2.00  2.00
  2.00  2.00  2.00  2.00  2.00  2.00  2.00  2.00  2.00  2.00  2.00  2.00
  2.00  2.00  0.00
mpi_setup: mkmem  undefined in the input file.Use default mkmem  = nkpt
 mpi_setup: With nkpt_me=21 and mkmem  = 21, ground state wf handled in core.
mpi_setup: mkqmem undefined in the input file.Use default mkqmem = nkpt
 mpi_setup: With nkpt_me=21 and mkqmem = 21, ground state wf handled in core.
mpi_setup: mk1mem undefined in the input file.Use default mk1mem = nkpt
 mpi_setup: With nkpt_me=21 and mk1mem = 21, ground state wf handled in core.
 For input ecut=  4.134375E+01 best grid ngfft=      54      54      36
       max ecut=  4.291691E+01

 ==== FFT mesh ====
  FFT mesh divisions ........................    54   54   36
  Augmented FFT divisions ...................    55   55   36
  FFT algorithm .............................   112
  FFT cache size ............................    16
 getmpw: optimal value of mpw= 6456

 Symmetries : space group Am m 2 (# 38); Bravais oC (1-face-center ortho.)

 getdim_nloc : deduce lmnmax  =  18, lnmax  =   6,
                      lmnmaxso=  18, lnmaxso=   6.
     intxc =       0    ionmov =       2      iscf =       7    lmnmax =       6
     lnmax =       6     mgfft =      54  mpssoang =       3    mqgrid =    3001
     natom =       6  nloc_mem =       1    nspden =       1   nspinor =       1
    nsppol =       1      nsym =       4    n1xccc =    2501    ntypat =       2
    occopt =       1   xclevel =       2
-    mband =          27        mffmem =           1         mkmem =          21
       mpw =        6456          nfft =      104976          nkpt =          21
  Rough estimation (10% accuracy) of disk space for files :

 The job will continue.
------------- Echo of variables that govern the present computation ------------
-
- outvars: echo of selected default values
-   iomode0 =  0 , fftalg0 =112 , wfoptalg0 =  0
-
- outvars: echo of global parameters not present in the input file
-  max_nthreads =    0
-
 -outvars: echo values of preprocessed input variables --------

 These variables are accessible in NetCDF format (relax_xo_OUT.nc)

            acell      9.1100000000E+00  9.1100000000E+00  6.1037000000E+00 Bohr
              amu      1.18710000E+02  1.59994000E+01
           diemac      1.20000000E+01
          dilatmx      1.05000000E+00
             ecut      3.75000000E+01 Hartree
           ecutsm      5.00000000E-01 Hartree
-          fftalg         112
           ionmov           2
           istwfk        2    0    3    0    0    0    7    0    0    0
                         0    0    0    0    4    0    5    0    0    0
                         9
              ixc          11
              kpt      0.00000000E+00  0.00000000E+00  0.00000000E+00
                       2.50000000E-01  0.00000000E+00  0.00000000E+00
                       5.00000000E-01  0.00000000E+00  0.00000000E+00
                       2.50000000E-01  2.50000000E-01  0.00000000E+00
                       5.00000000E-01  2.50000000E-01  0.00000000E+00
                      -2.50000000E-01  2.50000000E-01  0.00000000E+00
                       5.00000000E-01  5.00000000E-01  0.00000000E+00
                       0.00000000E+00  0.00000000E+00  2.50000000E-01
                       2.50000000E-01  0.00000000E+00  2.50000000E-01
                       5.00000000E-01  0.00000000E+00  2.50000000E-01
                       2.50000000E-01  2.50000000E-01  2.50000000E-01
                       5.00000000E-01  2.50000000E-01  2.50000000E-01
                      -2.50000000E-01  2.50000000E-01  2.50000000E-01
                       5.00000000E-01  5.00000000E-01  2.50000000E-01
                       0.00000000E+00  0.00000000E+00  5.00000000E-01
                       2.50000000E-01  0.00000000E+00  5.00000000E-01
                       5.00000000E-01  0.00000000E+00  5.00000000E-01
                       2.50000000E-01  2.50000000E-01  5.00000000E-01
                       5.00000000E-01  2.50000000E-01  5.00000000E-01
                      -2.50000000E-01  2.50000000E-01  5.00000000E-01
                       5.00000000E-01  5.00000000E-01  5.00000000E-01
         kptrlatt        4    0    0      0    4    0      0    0    4
          kptrlen      2.44148000E+01
P           mkmem          21
            natom           6
            nband          27
            ngfft          54      54      36
             nkpt          21
            nstep         100
             nsym           4
            ntime         100
           ntypat           2
              occ      2.000000  2.000000  2.000000  2.000000  2.000000  2.000000
                       2.000000  2.000000  2.000000  2.000000  2.000000  2.000000
                       2.000000  2.000000  2.000000  2.000000  2.000000  2.000000
                       2.000000  2.000000  2.000000  2.000000  2.000000  2.000000
                       2.000000  2.000000  0.000000
          optcell           2
          spgroup          38
           symrel      1  0  0   0  1  0   0  0  1       1  0  0   0  1  0   0  0 -1
                       0  1  0   1  0  0   0  0  1       0  1  0   1  0  0   0  0 -1
           toldfe      5.00000000E-13 Hartree
           tolmxf      1.00000000E-09
            typat      1  1  2  2  2  2
              wtk        0.01563    0.06250    0.03125    0.03125    0.06250    0.03125
                         0.01563    0.03125    0.12500    0.06250    0.06250    0.12500
                         0.06250    0.03125    0.01563    0.06250    0.03125    0.03125
                         0.06250    0.03125    0.01563
           xangst      0.0000000000E+00  0.0000000000E+00  0.0000000000E+00
                       2.4104021851E+00  2.4104021851E+00  1.6149694640E+00
                       3.8855683224E+00  9.3041524346E-01  1.6149694640E+00
                       9.3041524346E-01  3.8855683224E+00  1.6149694640E+00
                       1.4751661373E+00  1.4751661373E+00  0.0000000000E+00
                       3.3408174286E+00  3.3408174286E+00  0.0000000000E+00
            xcart      0.0000000000E+00  0.0000000000E+00  0.0000000000E+00
                       4.5550000000E+00  4.5550000000E+00  3.0518500000E+00
                       7.3426600000E+00  1.7582300000E+00  3.0518500000E+00
                       1.7582300000E+00  7.3426600000E+00  3.0518500000E+00
                       2.7876600000E+00  2.7876600000E+00  0.0000000000E+00
                       6.3132300000E+00  6.3132300000E+00  0.0000000000E+00
             xred      0.0000000000E+00  0.0000000000E+00  0.0000000000E+00
                       5.0000000000E-01  5.0000000000E-01  5.0000000000E-01
                       8.0600000000E-01  1.9300000000E-01  5.0000000000E-01
                       1.9300000000E-01  8.0600000000E-01  5.0000000000E-01
                       3.0600000000E-01  3.0600000000E-01  0.0000000000E+00
[...]
  2.17E-30 3.10E-30 1.25E-28 2.64E-29 5.23E-29 1.57E-28 3.33E-29 3.23E-29
  7.92E-29 6.25E-29 1.35E-29 4.44E-29 3.38E-30 1.53E-29 8.36E-29 3.03E-30
  7.68E-29 9.53E-29 1.05E-28
   0.5000  0.2500  0.5000    1  1.57491E-15 kpt; spin; max resid(k); each band:
  2.97E-29 8.65E-29 2.28E-29 2.57E-29 2.00E-29 5.50E-30 4.76E-30 1.29E-29
  2.52E-29 4.26E-30 1.37E-28 1.42E-29 2.81E-29 1.33E-28 3.16E-29 3.45E-29
  5.31E-29 2.73E-29 2.37E-29 7.14E-29 2.71E-29 7.40E-29 2.34E-29 9.11E-29
  1.06E-29 9.49E-29 1.57E-15
  -0.2500  0.2500  0.5000    1  1.44748E-28 kpt; spin; max resid(k); each band:
  2.35E-29 7.12E-29 3.88E-29 4.36E-30 2.17E-29 8.55E-29 9.71E-30 5.88E-30
  1.28E-29 2.05E-29 2.40E-29 1.45E-28 1.43E-28 2.14E-29 4.20E-29 3.75E-29
  5.77E-30 1.63E-29 5.68E-29 5.07E-29 8.48E-29 9.43E-29 2.14E-29 9.83E-29
  2.89E-29 4.97E-30 4.11E-29
   0.5000  0.5000  0.5000    1  1.35653E-17 kpt; spin; max resid(k); each band:
  3.65E-29 5.15E-29 3.04E-29 1.51E-29 4.49E-30 5.58E-30 6.49E-30 1.31E-29
  3.18E-30 4.90E-30 1.52E-28 1.36E-29 3.63E-29 1.35E-28 2.71E-29 3.29E-29
  4.95E-29 1.63E-29 3.16E-30 8.78E-29 6.24E-29 3.93E-29 4.12E-29 8.26E-29
  2.70E-30 1.02E-28 1.36E-17

 outwf: write wavefunction to file relax_xo_WFK, with iomode -1
 prteigrs : about to open file relax_xo_EIG
 Fermi (or HOMO) energy (hartree) =   0.15146   Average Vxc (hartree)=  -0.40912
 Eigenvalues (hartree) for nkpt=  21  k points:
 kpt#   1, nband= 27, wtk=  0.01563, kpt=  0.0000  0.0000  0.0000 (reduced coord)
  -0.62275   -0.60002   -0.59277   -0.59174   -0.59174   -0.58881   -0.58804   -0.58561
  -0.58518   -0.58518   -0.53174   -0.46868   -0.46868   -0.41513   -0.14076    0.00925
   0.00925    0.01290    0.04601    0.07756    0.07945    0.10448    0.10448    0.12553
   0.12553    0.15146    0.17324
 kpt#   2, nband= 27, wtk=  0.06250, kpt=  0.2500  0.0000  0.0000 (reduced coord)
  -0.61982   -0.60326   -0.59266   -0.59162   -0.59162   -0.59070   -0.58764   -0.58592
  -0.58532   -0.58531   -0.52485   -0.48146   -0.45846   -0.41972   -0.12574   -0.02735
   0.01905    0.02079    0.05746    0.06640    0.08579    0.09210    0.10525    0.10646
   0.12659    0.14180    0.22321
 kpt#   3, nband= 27, wtk=  0.03125, kpt=  0.5000  0.0000  0.0000 (reduced coord)
  -0.61198   -0.61198   -0.59221   -0.59221   -0.59149   -0.59149   -0.58673   -0.58673
  -0.58546   -0.58546   -0.50571   -0.50571   -0.43678   -0.43678   -0.08375   -0.08375
   0.04160    0.04160    0.04624    0.04624    0.08243    0.08243    0.10668    0.10668
   0.12985    0.12985    0.29104
 kpt#   4, nband= 27, wtk=  0.03125, kpt=  0.2500  0.2500  0.0000 (reduced coord)
  -0.61815   -0.60647   -0.59247   -0.59178   -0.59149   -0.59134   -0.58734   -0.58612
  -0.58546   -0.58516   -0.51711   -0.47183   -0.47057   -0.42715   -0.10995   -0.03104
   0.01105    0.02717    0.05986    0.06484    0.06821    0.09289    0.10319    0.10681
   0.12340    0.13521    0.25121
 kpt#   5, nband= 27, wtk=  0.06250, kpt=  0.5000  0.2500  0.0000 (reduced coord)
  -0.61311   -0.61311   -0.59204   -0.59204   -0.59166   -0.59166   -0.58668   -0.58668
  -0.58530   -0.58530   -0.49635   -0.49635   -0.44809   -0.44809   -0.06998   -0.06997
   0.03313    0.03313    0.04323    0.04323    0.08302    0.08302    0.10435    0.10435
   0.12513    0.12513    0.29793
 kpt#   6, nband= 27, wtk=  0.03125, kpt= -0.2500  0.2500  0.0000 (reduced coord)
  -0.61815   -0.60647   -0.59247   -0.59178   -0.59149   -0.59134   -0.58734   -0.58612
  -0.58546   -0.58516   -0.51711   -0.47183   -0.47057   -0.42715   -0.10995   -0.03104
   0.01105    0.02717    0.05986    0.06484    0.06821    0.09289    0.10319    0.10681
   0.12340    0.13521    0.25121
 kpt#   7, nband= 27, wtk=  0.01563, kpt=  0.5000  0.5000  0.0000 (reduced coord)
  -0.61417   -0.61417   -0.59189   -0.59189   -0.59181   -0.59181   -0.58662   -0.58662
  -0.58514   -0.58514   -0.47386   -0.47386   -0.47246   -0.47246   -0.05169   -0.05169
   0.01519    0.01519    0.04498    0.04498    0.08401    0.08401    0.10191    0.10191
   0.12059    0.12059    0.30470
 kpt#   8, nband= 27, wtk=  0.03125, kpt=  0.0000  0.0000  0.2500 (reduced coord)
  -0.61433   -0.60456   -0.60456   -0.59350   -0.58976   -0.58930   -0.58741   -0.58693
  -0.58693   -0.58570   -0.51821   -0.44525   -0.44525   -0.43039   -0.13899   -0.01661
   0.00073    0.02540    0.02540    0.05061    0.05061    0.05731    0.06020    0.12233
   0.12233    0.13526    0.26856
 kpt#   9, nband= 27, wtk=  0.12500, kpt=  0.2500  0.0000  0.2500 (reduced coord)
  -0.61437   -0.60804   -0.60175   -0.59342   -0.58965   -0.58916   -0.58725   -0.58674
  -0.58671   -0.58585   -0.51209   -0.46538   -0.43897   -0.42323   -0.12425   -0.03546
  -0.02008   -0.00746    0.04024    0.04280    0.06073    0.08107    0.08683    0.11939
   0.12042    0.13418    0.28550
 kpt#  10, nband= 27, wtk=  0.06250, kpt=  0.5000  0.0000  0.2500 (reduced coord)
  -0.61254   -0.61254   -0.59654   -0.59654   -0.58936   -0.58936   -0.58687   -0.58687
  -0.58624   -0.58624   -0.49288   -0.49288   -0.42718   -0.42718   -0.08431   -0.08431
  -0.02622   -0.02622    0.03923    0.03923    0.09547    0.09548    0.10249    0.10249
   0.12376    0.12376    0.33048
 kpt#  11, nband= 27, wtk=  0.06250, kpt=  0.2500  0.2500  0.2500 (reduced coord)
  -0.61376   -0.60602   -0.60469   -0.59468   -0.58971   -0.58891   -0.58720   -0.58673
  -0.58669   -0.58598   -0.50468   -0.46438   -0.44684   -0.42412   -0.11419   -0.06401
  -0.01491    0.02317    0.02845    0.03069    0.05184    0.09030    0.10318    0.11227
   0.12245    0.13405    0.29545
 kpt#  12, nband= 27, wtk=  0.12500, kpt=  0.5000  0.2500  0.2500 (reduced coord)
  -0.61078   -0.61078   -0.59954   -0.59954   -0.58934   -0.58934   -0.58694   -0.58694
  -0.58631   -0.58631   -0.48460   -0.48460   -0.43557   -0.43557   -0.09126   -0.09126
  -0.00258   -0.00258    0.02880    0.02880    0.08488    0.08489    0.10746    0.10746
   0.12633    0.12633    0.32255
 kpt#  13, nband= 27, wtk=  0.06250, kpt= -0.2500  0.2500  0.2500 (reduced coord)
  -0.61376   -0.60602   -0.60469   -0.59468   -0.58971   -0.58891   -0.58720   -0.58673
  -0.58669   -0.58598   -0.50468   -0.46438   -0.44684   -0.42412   -0.11419   -0.06401
  -0.01491    0.02317    0.02845    0.03069    0.05184    0.09030    0.10318    0.11227
   0.12245    0.13405    0.29545
 kpt#  14, nband= 27, wtk=  0.03125, kpt=  0.5000  0.5000  0.2500 (reduced coord)
  -0.60672   -0.60672   -0.60481   -0.60481   -0.58931   -0.58931   -0.58697   -0.58697
  -0.58636   -0.58636   -0.47194   -0.47194   -0.44843   -0.44843   -0.09559   -0.09559
   0.01721    0.01721    0.03707    0.03707    0.05492    0.05492    0.12066    0.12066
   0.12214    0.12214    0.31623
 kpt#  15, nband= 27, wtk=  0.01563, kpt=  0.0000  0.0000  0.5000 (reduced coord)
  -0.61490   -0.61490   -0.59986   -0.59986   -0.58843   -0.58843   -0.58628   -0.58628
  -0.58532   -0.58532   -0.47503   -0.47503   -0.42328   -0.42328   -0.10712   -0.10712
   0.00264    0.00264    0.01554    0.01554    0.05669    0.05669    0.09660    0.09660
   0.10863    0.10863    0.35335
 kpt#  16, nband= 27, wtk=  0.06250, kpt=  0.2500  0.0000  0.5000 (reduced coord)
  -0.61809   -0.61809   -0.59545   -0.59545   -0.58855   -0.58855   -0.58619   -0.58619
  -0.58511   -0.58511   -0.47896   -0.47896   -0.42009   -0.42009   -0.10348   -0.10348
  -0.02237   -0.02237    0.00619    0.00619    0.08543    0.08543    0.10360    0.10360
   0.11234    0.11234    0.35684
 kpt#  17, nband= 27, wtk=  0.03125, kpt=  0.5000  0.0000  0.5000 (reduced coord)
  -0.62035   -0.62035   -0.59216   -0.59216   -0.58841   -0.58841   -0.58611   -0.58611
  -0.58489   -0.58489   -0.48264   -0.48264   -0.41722   -0.41722   -0.09793   -0.09793
  -0.04410   -0.04410    0.00416    0.00416    0.09055    0.09055    0.11538    0.11538
   0.12334    0.12334    0.36232
 kpt#  18, nband= 27, wtk=  0.03125, kpt=  0.2500  0.2500  0.5000 (reduced coord)
  -0.62035   -0.61507   -0.60015   -0.59184   -0.58865   -0.58855   -0.58619   -0.58610
  -0.58510   -0.58498   -0.48267   -0.47234   -0.42457   -0.41714   -0.12121   -0.09955
  -0.03250   -0.01379   -0.01172    0.04682    0.05741    0.10768    0.10847    0.10995
   0.11200    0.11669    0.33511
 kpt#  19, nband= 27, wtk=  0.06250, kpt=  0.5000  0.2500  0.5000 (reduced coord)
  -0.61824   -0.61824   -0.59575   -0.59575   -0.58857   -0.58857   -0.58611   -0.58611
  -0.58503   -0.58503   -0.47654   -0.47654   -0.42104   -0.42104   -0.11949   -0.11949
  -0.02149   -0.02149    0.00988    0.00988    0.09644    0.09644    0.11474    0.11474
   0.11920    0.11920    0.33004
 kpt#  20, nband= 27, wtk=  0.03125, kpt= -0.2500  0.2500  0.5000 (reduced coord)
  -0.62035   -0.61507   -0.60015   -0.59184   -0.58865   -0.58855   -0.58619   -0.58610
  -0.58510   -0.58498   -0.48267   -0.47234   -0.42457   -0.41714   -0.12121   -0.09955
  -0.03250   -0.01379   -0.01172    0.04682    0.05741    0.10768    0.10847    0.10995
   0.11200    0.11669    0.33511
 kpt#  21, nband= 27, wtk=  0.01563, kpt=  0.5000  0.5000  0.5000 (reduced coord)
  -0.61524   -0.61524   -0.60032   -0.60032   -0.58849   -0.58849   -0.58611   -0.58611
  -0.58517   -0.58517   -0.46958   -0.46958   -0.42585   -0.42585   -0.13261   -0.13261
  -0.02309   -0.02309    0.05890    0.05890    0.06193    0.06193    0.11838    0.11838
   0.12372    0.12372    0.30893
 Total charge density [el/Bohr^3]
      Maximum=    1.2780E+00  at reduced coord.    0.4444    0.4630    0.5833
 Next maximum=    1.2780E+00  at reduced coord.    0.4630    0.4444    0.5833
      Minimum=    1.1040E-04  at reduced coord.    0.0000    0.0000    0.0000
 Next minimum=    1.1042E-04  at reduced coord.    0.5000    0.5000    0.5000
   Integrated=    5.2000E+01

 Cartesian components of stress tensor (hartree/bohr^3)
  sigma(1 1)= -1.04277698E-13  sigma(3 2)=  0.00000000E+00
  sigma(2 2)= -1.04277698E-13  sigma(3 1)=  0.00000000E+00
  sigma(3 3)= -1.00308303E-12  sigma(2 1)=  2.77807806E-15

-Cartesian components of stress tensor (GPa)         [Pressure=  1.1883E-08 GPa]
- sigma(1 1)= -3.06795527E-09  sigma(3 2)=  0.00000000E+00
- sigma(2 2)= -3.06795527E-09  sigma(3 1)=  0.00000000E+00
- sigma(3 3)= -2.95117168E-08  sigma(2 1)=  8.17338646E-11

== END DATASET(S) ==============================================================

 -outvars: echo values of variables after computation  --------

 These variables are accessible in NetCDF format (relax_xo_OUT.nc)

            acell      9.1349865193E+00  9.1349865193E+00  6.1385985012E+00 Bohr
              amu      1.18710000E+02  1.59994000E+01
           diemac      1.20000000E+01
          dilatmx      1.05000000E+00
             ecut      3.75000000E+01 Hartree
           ecutsm      5.00000000E-01 Hartree
           etotal     -2.2379350066E+02
            fcart     -2.0385726929E-11 -2.0385726929E-11 -0.0000000000E+00
                       8.4582219221E-11  8.4582219221E-11 -0.0000000000E+00
                       6.0241867020E-12  3.9551108068E-11 -0.0000000000E+00
                       3.9551108069E-11  6.0241867020E-12 -0.0000000000E+00
                      -5.8783404978E-11 -5.8783404978E-11 -0.0000000000E+00
                      -5.0988382084E-11 -5.0988382084E-11 -0.0000000000E+00
-          fftalg         112
           ionmov           2
           istwfk        2    0    3    0    0    0    7    0    0    0
                         0    0    0    0    4    0    5    0    0    0
                         9
              ixc          11
              kpt      0.00000000E+00  0.00000000E+00  0.00000000E+00
                       2.50000000E-01  0.00000000E+00  0.00000000E+00
                       5.00000000E-01  0.00000000E+00  0.00000000E+00
                       2.50000000E-01  2.50000000E-01  0.00000000E+00
                       5.00000000E-01  2.50000000E-01  0.00000000E+00
                      -2.50000000E-01  2.50000000E-01  0.00000000E+00
                       5.00000000E-01  5.00000000E-01  0.00000000E+00
                       0.00000000E+00  0.00000000E+00  2.50000000E-01
                       2.50000000E-01  0.00000000E+00  2.50000000E-01
                       5.00000000E-01  0.00000000E+00  2.50000000E-01
                       2.50000000E-01  2.50000000E-01  2.50000000E-01
                       5.00000000E-01  2.50000000E-01  2.50000000E-01
                      -2.50000000E-01  2.50000000E-01  2.50000000E-01
                       5.00000000E-01  5.00000000E-01  2.50000000E-01
                       0.00000000E+00  0.00000000E+00  5.00000000E-01
                       2.50000000E-01  0.00000000E+00  5.00000000E-01
                       5.00000000E-01  0.00000000E+00  5.00000000E-01
                       2.50000000E-01  2.50000000E-01  5.00000000E-01
                       5.00000000E-01  2.50000000E-01  5.00000000E-01
                      -2.50000000E-01  2.50000000E-01  5.00000000E-01
                       5.00000000E-01  5.00000000E-01  5.00000000E-01
         kptrlatt        4    0    0      0    4    0      0    0    4
          kptrlen      2.44148000E+01
P           mkmem          21
            natom           6
            nband          27
            ngfft          54      54      36
             nkpt          21
            nstep         100
             nsym           4
            ntime         100
           ntypat           2
              occ      2.000000  2.000000  2.000000  2.000000  2.000000  2.000000
                       2.000000  2.000000  2.000000  2.000000  2.000000  2.000000
                       2.000000  2.000000  2.000000  2.000000  2.000000  2.000000
                       2.000000  2.000000  2.000000  2.000000  2.000000  2.000000
                       2.000000  2.000000  0.000000
          optcell           2
            rprim      1.0000000000E+00 -2.3822120282E-09  0.0000000000E+00
                      -2.3822120282E-09  1.0000000000E+00  0.0000000000E+00
                       0.0000000000E+00  0.0000000000E+00  1.0000000000E+00
          spgroup          38
           strten     -1.0427769759E-13 -1.0427769759E-13 -1.0030830333E-12
                       0.0000000000E+00  0.0000000000E+00  2.7780780608E-15
           symrel      1  0  0   0  1  0   0  0  1       1  0  0   0  1  0   0  0 -1
                       0  1  0   1  0  0   0  0  1       0  1  0   1  0  0   0  0 -1
           toldfe      5.00000000E-13 Hartree
           tolmxf      1.00000000E-09
            typat      1  1  2  2  2  2
              wtk        0.01563    0.06250    0.03125    0.03125    0.06250    0.03125
                         0.01563    0.03125    0.12500    0.06250    0.06250    0.12500
                         0.06250    0.03125    0.01563    0.06250    0.03125    0.03125
                         0.06250    0.03125    0.01563
           xangst     -1.5972457498E-03 -1.5972457498E-03  0.0000000000E+00
                       2.4154171487E+00  2.4154171487E+00  1.6242032098E+00
                       3.8980686895E+00  9.3269907770E-01  1.6242032098E+00
                       9.3269907770E-01  3.8980686895E+00  1.6242032098E+00
                       1.4810769800E+00  1.4810769800E+00  0.0000000000E+00
                       3.3497339347E+00  3.3497339347E+00  0.0000000000E+00
            xcart     -3.0183570341E-03 -3.0183570341E-03  0.0000000000E+00
                       4.5644769078E+00  4.5644769078E+00  3.0692992506E+00
                       7.3662822703E+00  1.7625458212E+00  3.0692992506E+00
                       1.7625458212E+00  7.3662822703E+00  3.0692992506E+00
                       2.7988298740E+00  2.7988298740E+00  0.0000000000E+00
                       6.3300797545E+00  6.3300797545E+00  0.0000000000E+00
             xred     -3.3041724090E-04 -3.3041724090E-04  0.0000000000E+00
                       4.9966980345E-01  4.9966980345E-01  5.0000000000E-01
                       8.0638129667E-01  1.9294454733E-01  5.0000000000E-01
                       1.9294454733E-01  8.0638129667E-01  5.0000000000E-01
                       3.0638577022E-01  3.0638577022E-01  0.0000000000E+00
                       6.9294899957E-01  6.9294899957E-01  0.0000000000E+00
            znucl       50.00000    8.00000

 Suggested references for the acknowledgment of ABINIT usage.

 Calculation completed.
.Delivered   0 WARNINGs and   1 COMMENTs to log file.

--- !FinalSummary
program: abinit
version: 8.6.3
start_datetime: Wed May 09 22:42:22 2018
end_datetime: Thu May 10 02:10:36 2018
overall_cpu_time:       12468.7
overall_wall_time:       12493.7
exit_requested_by_user: no
timelimit: 0
pseudos:
    Sn  : 36ce2a2501b0ba4dc9d77c0c4b46e9ad
    O   : abbcf0645b4a6d69360cd16bcad3e730
usepaw: 0
mpi_procs: 1
omp_threads: 1
num_warnings: 0
num_comments: 1
...