     Program PWSCF v.6.2.2 starts on 10May2018 at  5: 4:42

     R & G space division:  proc/nbgrp/npool/nimage =       2
     Reading input from QE_relax.in

     Current dimensions of program PWSCF are:
     Max number of different atomic species (ntypx) = 10
     Max number of k-points (npk) =  40000
     Max angular momentum in pseudopotentials (lmaxx) =  3

     Subspace diagonalization in iterative solution of the eigenvalue problem:
     a serial algorithm will be used

     bravais-lattice index     =            6
     lattice parameter (alat)  =       9.1100  a.u.
     unit-cell volume          =     506.5589 (a.u.)^3
     number of atoms/cell      =            6
     number of atomic types    =            2
     number of electrons       =        52.00
     number of Kohn-Sham states=           26
     kinetic-energy cutoff     =      75.0000  Ry
     charge density cutoff     =     300.0000  Ry
     convergence threshold     =      1.0E-12
     mixing beta               =       0.7000
     number of iterations used =            8  plain     mixing
     Exchange-correlation      = PBE ( 1  4  3  4 0 0)
     nstep                     =           50

     celldm(1)=   9.110000  celldm(2)=   0.000000  celldm(3)=   0.670000
     celldm(4)=   0.000000  celldm(5)=   0.000000  celldm(6)=   0.000000

     crystal axes: (cart. coord. in units of alat)
               a(1) = (   1.000000   0.000000   0.000000 )
               a(2) = (   0.000000   1.000000   0.000000 )
               a(3) = (   0.000000   0.000000   0.670000 )

     reciprocal axes: (cart. coord. in units 2 pi/alat)
               b(1) = (  1.000000  0.000000  0.000000 )
               b(2) = (  0.000000  1.000000  0.000000 )
               b(3) = (  0.000000  0.000000  1.492537 )

     PseudoPot. # 1 for Sn read from file:
     ../Pseudo_potentials/Sn_PBE.upf
     MD5 check sum: 78e6386ae56e929f0568ae8bf606a80c
     Pseudo is Norm-conserving + core correction, Zval = 14.0
     Generated using ONCVPSP code by D. R. Hamann
     Using radial grid of 1628 points,  6 beta functions with:
                l(1) =   0
                l(2) =   0
                l(3) =   1
                l(4) =   1
                l(5) =   2
                l(6) =   2

     PseudoPot. # 2 for O  read from file:
     ../Pseudo_potentials/O_PBE.upf
     MD5 check sum: 3e3f909f7470e8921608ab6b1f57bbae
     Pseudo is Norm-conserving + core correction, Zval =  6.0
     Generated using ONCVPSP code by D. R. Hamann
     Using radial grid of  936 points,  5 beta functions with:
                l(1) =   0
                l(2) =   0
                l(3) =   1
                l(4) =   1
                l(5) =   2

     atomic species   valence    mass     pseudopotential
        Sn            14.00   118.71000     Sn( 1.00)
        O              6.00    15.99900     O ( 1.00)

      4 Sym. Ops. (no inversion) found

   Cartesian axes

     site n.     atom                  positions (alat units)
         1           Sn  tau(   1) = (   0.0000000   0.0000000   0.0000000  )
         2           Sn  tau(   2) = (   0.5000000   0.5000000   0.3350000  )
         3           O   tau(   3) = (   0.8060000   0.1930000   0.3350000  )
         4           O   tau(   4) = (   0.1930000   0.8060000   0.3350000  )
         5           O   tau(   5) = (   0.3060000   0.3060000   0.0000000  )
         6           O   tau(   6) = (   0.6930000   0.6930000   0.0000000  )

     number of k points=    21
                       cart. coord. in units 2pi/alat
        k(    1) = (   0.0000000   0.0000000   0.0000000), wk =   0.0312500
        k(    2) = (   0.0000000   0.0000000   0.3731343), wk =   0.0625000
        k(    3) = (   0.0000000   0.0000000  -0.7462687), wk =   0.0312500
        k(    4) = (   0.0000000   0.2500000   0.0000000), wk =   0.1250000
        k(    5) = (   0.0000000   0.2500000   0.3731343), wk =   0.2500000
        k(    6) = (   0.0000000   0.2500000  -0.7462687), wk =   0.1250000
        k(    7) = (   0.0000000  -0.5000000   0.0000000), wk =   0.0625000
        k(    8) = (   0.0000000  -0.5000000   0.3731343), wk =   0.1250000
        k(    9) = (   0.0000000  -0.5000000  -0.7462687), wk =   0.0625000
        k(   10) = (   0.2500000   0.2500000   0.0000000), wk =   0.0625000
        k(   11) = (   0.2500000   0.2500000   0.3731343), wk =   0.1250000
        k(   12) = (   0.2500000   0.2500000  -0.7462687), wk =   0.0625000
        k(   13) = (   0.2500000  -0.5000000   0.0000000), wk =   0.1250000
        k(   14) = (   0.2500000  -0.5000000   0.3731343), wk =   0.2500000
        k(   15) = (   0.2500000  -0.5000000  -0.7462687), wk =   0.1250000
        k(   16) = (  -0.5000000  -0.5000000   0.0000000), wk =   0.0312500
        k(   17) = (  -0.5000000  -0.5000000   0.3731343), wk =   0.0625000
        k(   18) = (  -0.5000000  -0.5000000  -0.7462687), wk =   0.0312500
        k(   19) = (   0.2500000  -0.2500000   0.0000000), wk =   0.0625000
        k(   20) = (   0.2500000  -0.2500000   0.3731343), wk =   0.1250000
        k(   21) = (   0.2500000  -0.2500000  -0.7462687), wk =   0.0625000

     Check: negative/imaginary core charge=   -0.000002    0.000000

     Initial potential from superposition of free atoms

     starting charge   51.99690, renormalised to   52.00000
     Starting wfc are   34 randomized atomic wfcs

     Self-consistent Calculation

     iteration #  1     ecut=    75.00 Ry     beta= 0.70
     Davidson diagonalization with overlap
     ethr =  1.00E-02,  avg # of iterations =  2.0

     total energy              =    -446.85044198 Ry
     Harris-Foulkes estimate   =    -448.03130062 Ry
     estimated scf accuracy    <       1.60369318 Ry

[...]

     End of self-consistent calculation

          k = 0.0000 0.0000 0.0000 (  5577 PWs)   bands (ev):

   -12.0167 -11.3765 -11.1623 -11.1341 -11.1341 -11.0487 -11.0273 -10.9578
   -10.9478 -10.9478  -9.5883  -7.8462  -7.8461  -6.3290   1.0695   5.1466
     5.1466   5.2831   6.1524   7.0635   7.1067   7.8002   7.8003   8.3509
     8.3509   9.0689

[...]

          k =-0.5000-0.5000 0.0000 (  5572 PWs)   bands (ev):

[...]

     highest occupied level (ev):     9.0689

!    total energy              =    -447.58807250 Ry
     Harris-Foulkes estimate   =    -447.58807250 Ry
     estimated scf accuracy    <          9.7E-13 Ry

     The total energy is the sum of the following terms:

     one-electron contribution =    -124.05131983 Ry
     hartree contribution      =     101.06953251 Ry
     xc contribution           =    -122.12494937 Ry
     ewald contribution        =    -302.48133580 Ry

     convergence has been achieved in  17 iterations

     Forces acting on atoms (cartesian axes, Ry/au):

     atom    1 type  1   force =    -0.00105965   -0.00105965    0.00000000
     atom    2 type  1   force =    -0.00135191   -0.00135191    0.00000000
     atom    3 type  2   force =    -0.00045916    0.00042508    0.00000000
     atom    4 type  2   force =     0.00042508   -0.00045916   -0.00000000
     atom    5 type  2   force =     0.00078603    0.00078603    0.00000000
     atom    6 type  2   force =     0.00165961    0.00165961    0.00000000

     Total force =     0.003664     Total SCF correction =     0.000003

     Computing stress (Cartesian axis) and pressure

          total   stress  (Ry/bohr**3)                   (kbar)     P=   16.11
   0.00008114   0.00000011   0.00000000         11.94      0.02      0.00
   0.00000011   0.00008114  -0.00000000          0.02     11.94     -0.00
   0.00000000   0.00000000   0.00016635          0.00      0.00     24.47

     BFGS Geometry Optimization

     number of scf cycles    =   1
     number of bfgs steps    =   0

     enthalpy new            =    -447.5880724958 Ry

     new trust radius        =       0.0187205457 bohr
     new conv_thr            =            1.0E-12 Ry

     new unit-cell volume =    510.73143 a.u.^3 (    75.68259 Ang^3 )
     density =      6.61332 g/cm^3

CELL_PARAMETERS (alat=  9.11000000)
   1.002028592   0.000000000   0.000000000
   0.000000000   1.002028592   0.000000000
   0.000000000   0.000000000   0.672786431

ATOMIC_POSITIONS (crystal)
Sn      -0.000116318  -0.000116318   0.000000000
Sn       0.499851601   0.499851601   0.500000000
O        0.805949598   0.193046661   0.500000000
O        0.193046661   0.805949598   0.500000000
O        0.306086282   0.306086282   0.000000000
O        0.693182175   0.693182175   0.000000000

     Writing output data file SnO2.save
     NEW-OLD atomic charge density approx. for the potential

     Check: negative/imaginary core charge=   -0.000002    0.000000
     extrapolated charge   52.42480, renormalised to   52.00000

[...]

     enthalpy old            =    -447.5880724958 Ry
     enthalpy new            =    -447.5883373553 Ry

     CASE: enthalpy_new < enthalpy_old

[...]

     Threshold (ethr) on eigenvalues was too large:
     Diagonalizing with lowered threshold

     Davidson diagonalization with overlap
     ethr =  3.71E-09,  avg # of iterations =  2.8

[...]

     small trust_radius: resetting bfgs history

[...]

     number of scf cycles    =  11
     number of bfgs steps    =  10

     enthalpy old            =    -447.5883519590 Ry
     enthalpy new            =    -447.5883519615 Ry

     CASE: enthalpy_new < enthalpy_old

     Message from routine bfgs:
     history already reset at previous step: stopping
     small trust_radius: resetting bfgs history

     new trust radius        =       0.0000181713 bohr
     new conv_thr            =            1.0E-14 Ry

     new unit-cell volume =    510.50047 a.u.^3 (    75.64836 Ang^3 )
     density =      6.61631 g/cm^3

[...]

ATOMIC_POSITIONS (crystal)
Sn      -0.000329146  -0.000329146   0.000000000
Sn       0.499670184   0.499670184   0.500000000
O        0.806311482   0.193013332   0.500000000
O        0.193013332   0.806311482   0.500000000
O        0.306316151   0.306316151   0.000000000
O        0.693017998   0.693017998   0.000000000

     Writing output data file SnO2.save
     NEW-OLD atomic charge density approx. for the potential

     Check: negative/imaginary core charge=   -0.000002    0.000000
     extrapolated charge   52.00014, renormalised to   52.00000

[...]

     Threshold (ethr) on eigenvalues was too large:
     Diagonalizing with lowered threshold

     Davidson diagonalization with overlap
     ethr =  4.02E-12,  avg # of iterations =  3.2

[...]

     bfgs converged in  12 scf cycles and  11 bfgs steps
     (criteria: energy <  1.0E-04 Ry, force <  1.0E-09Ry/Bohr, cell <  5.0E-01kbar)

     End of BFGS Geometry Optimization

     Final enthalpy =    -447.5883519623 Ry
Begin final coordinates
     new unit-cell volume =    510.50047 a.u.^3 (    75.64836 Ang^3 )
     density =      6.61631 g/cm^3

CELL_PARAMETERS (alat=  9.11000000)
   1.001265151   0.000000000   0.000000000
   0.000000000   1.001265151   0.000000000
   0.000000000   0.000000000   0.673508090

ATOMIC_POSITIONS (crystal)
Sn      -0.000329146  -0.000329146   0.000000000
Sn       0.499670184   0.499670184   0.500000000
O        0.806311482   0.193013332   0.500000000
O        0.193013332   0.806311482   0.500000000
O        0.306316151   0.306316151   0.000000000
O        0.693017998   0.693017998   0.000000000
End final coordinates

     A final scf calculation at the relaxed structure.
     The G-vectors are recalculated for the final unit cell
     Results may differ from those at the preceding step.

     bravais-lattice index     =            6
     lattice parameter (alat)  =       9.1100  a.u.
     unit-cell volume          =     510.5005 (a.u.)^3
     number of atoms/cell      =            6
     number of atomic types    =            2
     number of electrons       =        52.00
     number of Kohn-Sham states=           26
     kinetic-energy cutoff     =      75.0000  Ry
     charge density cutoff     =     300.0000  Ry
     convergence threshold     =      1.0E-14
     mixing beta               =       0.7000
     number of iterations used =            8  plain     mixing
     Exchange-correlation      = PBE ( 1  4  3  4 0 0)

     celldm(1)=   9.110000  celldm(2)=   0.000000  celldm(3)=   0.670000
     celldm(4)=   0.000000  celldm(5)=   0.000000  celldm(6)=   0.000000

     crystal axes: (cart. coord. in units of alat)
               a(1) = (   1.001265   0.000000   0.000000 )
               a(2) = (   0.000000   1.001265   0.000000 )
               a(3) = (   0.000000   0.000000   0.673508 )

     reciprocal axes: (cart. coord. in units 2 pi/alat)
               b(1) = (  0.998736  0.000000  0.000000 )
               b(2) = (  0.000000  0.998736  0.000000 )
               b(3) = (  0.000000  0.000000  1.484763 )

     PseudoPot. # 1 for Sn read from file:
     ../Pseudo_potentials/Sn_PBE.upf
     MD5 check sum: 78e6386ae56e929f0568ae8bf606a80c
     Pseudo is Norm-conserving + core correction, Zval = 14.0
     Generated using ONCVPSP code by D. R. Hamann
     Using radial grid of 1628 points,  6 beta functions with:
                l(1) =   0
                l(2) =   0
                l(3) =   1
                l(4) =   1
                l(5) =   2
                l(6) =   2

     PseudoPot. # 2 for O  read from file:
     ../Pseudo_potentials/O_PBE.upf
     MD5 check sum: 3e3f909f7470e8921608ab6b1f57bbae
     Pseudo is Norm-conserving + core correction, Zval =  6.0
     Generated using ONCVPSP code by D. R. Hamann
     Using radial grid of  936 points,  5 beta functions with:
                l(1) =   0
                l(2) =   0
                l(3) =   1
                l(4) =   1
                l(5) =   2

     atomic species   valence    mass     pseudopotential
        Sn            14.00   118.71000     Sn( 1.00)
        O              6.00    15.99900     O ( 1.00)

      4 Sym. Ops. (no inversion) found

   Cartesian axes

     site n.     atom                  positions (alat units)
         1           Sn  tau(   1) = (  -0.0003296  -0.0003296   0.0000000  )
         2           Sn  tau(   2) = (   0.5003023   0.5003023   0.3367540  )
         3           O   tau(   3) = (   0.8073316   0.1932575   0.3367540  )
         4           O   tau(   4) = (   0.1932575   0.8073316   0.3367540  )
         5           O   tau(   5) = (   0.3067037   0.3067037   0.0000000  )
         6           O   tau(   6) = (   0.6938948   0.6938948   0.0000000  )

     number of k points=    21
                       cart. coord. in units 2pi/alat
        k(    1) = (   0.0000000   0.0000000   0.0000000), wk =   0.0312500
        k(    2) = (   0.0000000   0.0000000   0.3711908), wk =   0.0625000
        k(    3) = (   0.0000000   0.0000000  -0.7423816), wk =   0.0312500
        k(    4) = (   0.0000000   0.2496841   0.0000000), wk =   0.1250000
        k(    5) = (   0.0000000   0.2496841   0.3711908), wk =   0.2500000
        k(    6) = (   0.0000000   0.2496841  -0.7423816), wk =   0.1250000
        k(    7) = (   0.0000000  -0.4993682   0.0000000), wk =   0.0625000
        k(    8) = (   0.0000000  -0.4993682   0.3711908), wk =   0.1250000
        k(    9) = (   0.0000000  -0.4993682  -0.7423816), wk =   0.0625000
        k(   10) = (   0.2496841   0.2496841   0.0000000), wk =   0.0625000
        k(   11) = (   0.2496841   0.2496841   0.3711908), wk =   0.1250000
        k(   12) = (   0.2496841   0.2496841  -0.7423816), wk =   0.0625000
        k(   13) = (   0.2496841  -0.4993682   0.0000000), wk =   0.1250000
        k(   14) = (   0.2496841  -0.4993682   0.3711908), wk =   0.2500000
        k(   15) = (   0.2496841  -0.4993682  -0.7423816), wk =   0.1250000
        k(   16) = (  -0.4993682  -0.4993682   0.0000000), wk =   0.0312500
        k(   17) = (  -0.4993682  -0.4993682   0.3711908), wk =   0.0625000
        k(   18) = (  -0.4993682  -0.4993682  -0.7423816), wk =   0.0312500
        k(   19) = (   0.2496841  -0.2496841   0.0000000), wk =   0.0625000
        k(   20) = (   0.2496841  -0.2496841   0.3711908), wk =   0.1250000
        k(   21) = (   0.2496841  -0.2496841  -0.7423816), wk =   0.0625000

     Check: negative/imaginary core charge=   -0.000002    0.000000

     Initial potential from superposition of free atoms

     starting charge   51.99690, renormalised to   52.00000
     Starting wfc are   34 randomized atomic wfcs

     Writing output data file SnO2.save

     Self-consistent Calculation

[...]

     total energy              =    -447.58848954 Ry
     Harris-Foulkes estimate   =    -447.58848954 Ry
     estimated scf accuracy    <          8.3E-14 Ry

     iteration # 21     ecut=    75.00 Ry     beta= 0.70
     Davidson diagonalization with overlap
     ethr =  1.00E-13,  avg # of iterations =  1.0

     End of self-consistent calculation

[...]

          k =-0.4994-0.4994-0.7424 (  5592 PWs)   bands (ev):

[...]

          k = 0.2497-0.2497-0.7424 (  5588 PWs)   bands (ev):

   -12.0475 -11.9007 -11.4955 -11.2636 -11.1750 -11.1721 -11.1073 -11.1049
   -11.0778 -11.0741  -8.3100  -8.0227  -6.7180  -6.5121   1.5239   2.1192
     3.9387   4.4497   4.5046   6.1111   6.3929   7.7624   7.7831   7.8216
     7.8866   8.0068

     highest occupied level (ev):     8.9569

!    total energy              =    -447.58848954 Ry
     Harris-Foulkes estimate   =    -447.58848954 Ry
     estimated scf accuracy    <          7.2E-15 Ry

     The total energy is the sum of the following terms:

     one-electron contribution =    -125.01248407 Ry
     hartree contribution      =     101.32102027 Ry
     xc contribution           =    -122.08714764 Ry
     ewald contribution        =    -301.80987809 Ry

     convergence has been achieved in  21 iterations

     Forces acting on atoms (cartesian axes, Ry/au):

     atom    1 type  1   force =    -0.00000507   -0.00000507    0.00000000
     atom    2 type  1   force =    -0.00000017   -0.00000017    0.00000000
     atom    3 type  2   force =     0.00000404   -0.00000357    0.00000000
     atom    4 type  2   force =    -0.00000357    0.00000404    0.00000000
     atom    5 type  2   force =     0.00000619    0.00000619    0.00000000
     atom    6 type  2   force =    -0.00000143   -0.00000143    0.00000000

     Total force =     0.000014     Total SCF correction =     0.000000

     Computing stress (Cartesian axis) and pressure

          total   stress  (Ry/bohr**3)                   (kbar)     P=    0.46
   0.00000247   0.00000000   0.00000000          0.36      0.00      0.00
   0.00000000   0.00000247   0.00000000          0.00      0.36      0.00
   0.00000000   0.00000000   0.00000450          0.00      0.00      0.66

     Writing output data file SnO2.save

     General routines

     Parallel routines

   This run was terminated on:   5:27:30  10May2018

   JOB DONE.