     Program PWSCF v.6.2.2 starts on 24May2018 at 14:50: 4

     R & G space division:  proc/nbgrp/npool/nimage =       4
     Waiting for input...
     Reading input from standard input
Warning: card  &IONS ignored
Warning: card  / ignored
Warning: card  &CELL ignored
Warning: card  / ignored

     Current dimensions of program PWSCF are:
     Max number of different atomic species (ntypx) = 10
     Max number of k-points (npk) =  40000
     Max angular momentum in pseudopotentials (lmaxx) =  3

     Subspace diagonalization in iterative solution of the eigenvalue problem:
     a serial algorithm will be used

     bravais-lattice index     =            6
     lattice parameter (alat)  =       9.1336  a.u.
     unit-cell volume          =     511.8655 (a.u.)^3
     number of atoms/cell      =            6
     number of atomic types    =            2
     number of electrons       =        52.01
     number of Kohn-Sham states=           31
     kinetic-energy cutoff     =      80.0000  Ry
     charge density cutoff     =     320.0000  Ry
     convergence threshold     =      1.0E-20
     mixing beta               =       0.7000
     number of iterations used =            8  plain     mixing
     Exchange-correlation      = PBE ( 1  4  3  4 0 0)

     celldm(1)=   9.133580  celldm(2)=   0.000000  celldm(3)=   0.671789
     celldm(4)=   0.000000  celldm(5)=   0.000000  celldm(6)=   0.000000

     crystal axes: (cart. coord. in units of alat)
               a(1) = (   1.000000   0.000000   0.000000 )
               a(2) = (   0.000000   1.000000   0.000000 )
               a(3) = (   0.000000   0.000000   0.671789 )

     reciprocal axes: (cart. coord. in units 2 pi/alat)
               b(1) = (  1.000000  0.000000  0.000000 )
               b(2) = (  0.000000  1.000000  0.000000 )
               b(3) = (  0.000000  0.000000  1.488563 )

     PseudoPot. # 1 for Sn read from file:
     ../../Pseudo_potentials/Sn_PBE.upf
     MD5 check sum: 78e6386ae56e929f0568ae8bf606a80c
     Pseudo is Norm-conserving + core correction, Zval = 14.0
     Generated using ONCVPSP code by D. R. Hamann
     Using radial grid of 1628 points,  6 beta functions with:
                l(1) =   0
                l(2) =   0
                l(3) =   1
                l(4) =   1
                l(5) =   2
                l(6) =   2

     PseudoPot. # 2 for O  read from file:
     ../../Pseudo_potentials/O_PBE.upf
     MD5 check sum: 3e3f909f7470e8921608ab6b1f57bbae
     Pseudo is Norm-conserving + core correction, Zval =  6.0
     Generated using ONCVPSP code by D. R. Hamann
     Using radial grid of  936 points,  5 beta functions with:
                l(1) =   0
                l(2) =   0
                l(3) =   1
                l(4) =   1
                l(5) =   2

     atomic species   valence    mass     pseudopotential
        Sn            14.00   118.71000     Sn( 1.00)
        O              6.00    15.99900     O ( 1.00)

      4 Sym. Ops. (no inversion) found

   Cartesian axes

     site n.     atom                  positions (alat units)
         1           Sn  tau(   1) = (  -0.0003306  -0.0003306   0.0000000  )
         2           Sn  tau(   2) = (   0.4996695   0.4996695   0.3358943  )
         3           O   tau(   3) = (   0.8063619   0.1929648   0.3358943  )
         4           O   tau(   4) = (   0.1929648   0.8063619   0.3358943  )
         5           O   tau(   5) = (   0.3063658   0.3063658   0.0000000  )
         6           O   tau(   6) = (   0.6929687   0.6929687   0.0000000  )

     number of k points=    52  Methfessel-Paxton smearing, width (Ry)=  0.0100
                       cart. coord. in units 2pi/alat
        k(    1) = (   0.0000000   0.0000000   0.0000000), wk =   0.0092593
        k(    2) = (   0.0000000   0.0000000   0.2480939), wk =   0.0185185
        k(    3) = (   0.0000000   0.0000000   0.4961878), wk =   0.0185185
        k(    4) = (   0.0000000   0.0000000  -0.7442817), wk =   0.0092593
        k(    5) = (   0.0000000   0.1666667   0.0000000), wk =   0.0370370
        k(    6) = (   0.0000000   0.1666667   0.2480939), wk =   0.0740741
        k(    7) = (   0.0000000   0.1666667   0.4961878), wk =   0.0740741
        k(    8) = (   0.0000000   0.1666667  -0.7442817), wk =   0.0370370
        k(    9) = (   0.0000000   0.3333333   0.0000000), wk =   0.0370370
        k(   10) = (   0.0000000   0.3333333   0.2480939), wk =   0.0740741
        k(   11) = (   0.0000000   0.3333333   0.4961878), wk =   0.0740741
        k(   12) = (   0.0000000   0.3333333  -0.7442817), wk =   0.0370370
        k(   13) = (   0.0000000  -0.5000000   0.0000000), wk =   0.0185185
        k(   14) = (   0.0000000  -0.5000000   0.2480939), wk =   0.0370370
        k(   15) = (   0.0000000  -0.5000000   0.4961878), wk =   0.0370370
        k(   16) = (   0.0000000  -0.5000000  -0.7442817), wk =   0.0185185
        k(   17) = (   0.1666667   0.1666667   0.0000000), wk =   0.0185185
        k(   18) = (   0.1666667   0.1666667   0.2480939), wk =   0.0370370
        k(   19) = (   0.1666667   0.1666667   0.4961878), wk =   0.0370370
        k(   20) = (   0.1666667   0.1666667  -0.7442817), wk =   0.0185185
        k(   21) = (   0.1666667   0.3333333   0.0000000), wk =   0.0370370
        k(   22) = (   0.1666667   0.3333333   0.2480939), wk =   0.0740741
        k(   23) = (   0.1666667   0.3333333   0.4961878), wk =   0.0740741
        k(   24) = (   0.1666667   0.3333333  -0.7442817), wk =   0.0370370
        k(   25) = (   0.1666667  -0.5000000   0.0000000), wk =   0.0370370
        k(   26) = (   0.1666667  -0.5000000   0.2480939), wk =   0.0740741
        k(   27) = (   0.1666667  -0.5000000   0.4961878), wk =   0.0740741
        k(   28) = (   0.1666667  -0.5000000  -0.7442817), wk =   0.0370370
        k(   29) = (   0.3333333   0.3333333   0.0000000), wk =   0.0185185
        k(   30) = (   0.3333333   0.3333333   0.2480939), wk =   0.0370370
        k(   31) = (   0.3333333   0.3333333   0.4961878), wk =   0.0370370
        k(   32) = (   0.3333333   0.3333333  -0.7442817), wk =   0.0185185
        k(   33) = (   0.3333333  -0.5000000   0.0000000), wk =   0.0370370
        k(   34) = (   0.3333333  -0.5000000   0.2480939), wk =   0.0740741
        k(   35) = (   0.3333333  -0.5000000   0.4961878), wk =   0.0740741
        k(   36) = (   0.3333333  -0.5000000  -0.7442817), wk =   0.0370370
        k(   37) = (  -0.5000000  -0.5000000   0.0000000), wk =   0.0092593
        k(   38) = (  -0.5000000  -0.5000000   0.2480939), wk =   0.0185185
        k(   39) = (  -0.5000000  -0.5000000   0.4961878), wk =   0.0185185
        k(   40) = (  -0.5000000  -0.5000000  -0.7442817), wk =   0.0092593
        k(   41) = (   0.1666667  -0.1666667   0.0000000), wk =   0.0185185
        k(   42) = (   0.1666667  -0.1666667   0.2480939), wk =   0.0370370
        k(   43) = (   0.1666667  -0.1666667   0.4961878), wk =   0.0370370
        k(   44) = (   0.1666667  -0.1666667  -0.7442817), wk =   0.0185185
        k(   45) = (   0.3333333  -0.1666667   0.0000000), wk =   0.0370370
        k(   46) = (   0.3333333  -0.1666667   0.2480939), wk =   0.0740741
        k(   47) = (   0.3333333  -0.1666667   0.4961878), wk =   0.0740741
        k(   48) = (   0.3333333  -0.1666667  -0.7442817), wk =   0.0370370
        k(   49) = (   0.3333333  -0.3333333   0.0000000), wk =   0.0185185
        k(   50) = (   0.3333333  -0.3333333   0.2480939), wk =   0.0370370
        k(   51) = (   0.3333333  -0.3333333   0.4961878), wk =   0.0370370
        k(   52) = (   0.3333333  -0.3333333  -0.7442817), wk =   0.0185185

     Initial potential from superposition of free atoms

     starting charge   51.99690, renormalised to   52.01000
     Starting wfc are   34 randomized atomic wfcs

     Self-consistent Calculation

     iteration #  1     ecut=    80.00 Ry     beta= 0.70
     Davidson diagonalization with overlap
     ethr =  1.00E-02,  avg # of iterations =  2.6

     total energy              =    -446.85558218 Ry
     Harris-Foulkes estimate   =    -448.02779079 Ry
     estimated scf accuracy    <       1.59032459 Ry

[...]

     total energy              =    -447.58314762 Ry
     Harris-Foulkes estimate   =    -447.58314762 Ry
     estimated scf accuracy    <          5.2E-20 Ry

     iteration # 22     ecut=    80.00 Ry     beta= 0.70
     Davidson diagonalization with overlap
     ethr =  1.00E-13,  avg # of iterations =  1.0

     End of self-consistent calculation

          k = 0.0000 0.0000 0.0000 (  6209 PWs)   bands (ev):

   -12.1465 -11.5254 -11.3263 -11.2986 -11.2986 -11.2180 -11.1972 -11.1307
   -11.1194 -11.1194  -9.6788  -7.9617  -7.9617  -6.4985   0.9618   5.0425
     5.0425   5.1441   6.0417   6.9061   6.9552   7.6372   7.6372   8.2090
     8.2090   8.9154   9.5190  14.5128  14.9691  14.9691  18.9835

[...]

          k =-0.5000-0.5000 0.0000 (  6212 PWs)   bands (ev):

[...]

          k =-0.5000-0.5000-0.7443 (  6216 PWs)   bands (ev):

[...]

          k = 0.3333-0.3333-0.7443 (  6202 PWs)   bands (ev):

   -12.0552 -11.9395 -11.5315 -11.3546 -11.2134 -11.2114 -11.1454 -11.1437
   -11.1170 -11.1143  -8.2446  -8.0219  -6.7737  -6.6092   1.3318   1.6610
     4.2870   4.3088   4.5416   6.3035   6.3747   7.7810   7.8257   7.8782
     7.9686   8.0712  13.5908  13.8459  16.8407  17.9932  19.0207

     the Fermi energy is    10.1675 ev

!    total energy              =    -447.58314762 Ry
     Harris-Foulkes estimate   =    -447.58314762 Ry
     estimated scf accuracy    <          7.8E-21 Ry

     The total energy is the sum of the following terms:

     one-electron contribution =    -125.49514558 Ry
     hartree contribution      =     101.49231914 Ry
     xc contribution           =    -122.08532102 Ry
     ewald contribution        =    -301.49500496 Ry
     smearing contrib. (-TS)   =       0.00000481 Ry

     convergence has been achieved in  22 iterations

     Forces acting on atoms (cartesian axes, Ry/au):

     atom    1 type  1   force =     0.00000003    0.00000003    0.00000000
     atom    2 type  1   force =     0.00000018    0.00000018    0.00000000
     atom    3 type  2   force =    -0.00018745    0.00018697    0.00000000
     atom    4 type  2   force =     0.00018697   -0.00018745    0.00000000
     atom    5 type  2   force =    -0.00018705   -0.00018705    0.00000000
     atom    6 type  2   force =     0.00018732    0.00018732    0.00000000

     Total force =     0.000529     Total SCF correction =     0.000000

     Computing stress (Cartesian axis) and pressure

          total   stress  (Ry/bohr**3)                   (kbar)     P=    5.27
   0.00003344  -0.00000000   0.00000000          4.92     -0.00      0.00
  -0.00000000   0.00003344   0.00000000         -0.00      4.92      0.00
   0.00000000   0.00000000   0.00004061          0.00      0.00      5.97

     Writing output data file SnO2.save

     General routines

     Parallel routines

   This run was terminated on:  16:31:13  24May2018

   JOB DONE.