     Program PWSCF v.6.2.2 starts on 10May2018 at  5: 1:24

     R & G space division:  proc/nbgrp/npool/nimage =       4
     Waiting for input...
     Reading input from standard input
Warning: card  &IONS ignored
Warning: card  / ignored
Warning: card  &CELL ignored
Warning: card  / ignored

     Current dimensions of program PWSCF are:
     Max number of different atomic species (ntypx) = 10
     Max number of k-points (npk) =  40000
     Max angular momentum in pseudopotentials (lmaxx) =  3

     Subspace diagonalization in iterative solution of the eigenvalue problem:
     a serial algorithm will be used

     bravais-lattice index     =            6
     lattice parameter (alat)  =       9.1370  a.u.
     unit-cell volume          =     512.3005 (a.u.)^3
     number of atoms/cell      =            6
     number of atomic types    =            2
     number of electrons       =        51.99
     number of Kohn-Sham states=           31
     kinetic-energy cutoff     =      75.0000  Ry
     charge density cutoff     =     300.0000  Ry
     convergence threshold     =      1.0E-20
     mixing beta               =       0.7000
     number of iterations used =            8  plain     mixing
     Exchange-correlation      = PBE ( 1  4  3  4 0 0)

     celldm(1)=   9.137033  celldm(2)=   0.000000  celldm(3)=   0.671598
     celldm(4)=   0.000000  celldm(5)=   0.000000  celldm(6)=   0.000000

     crystal axes: (cart. coord. in units of alat)
               a(1) = (   1.000000   0.000000   0.000000 )
               a(2) = (   0.000000   1.000000   0.000000 )
               a(3) = (   0.000000   0.000000   0.671598 )

     reciprocal axes: (cart. coord. in units 2 pi/alat)
               b(1) = (  1.000000  0.000000  0.000000 )
               b(2) = (  0.000000  1.000000  0.000000 )
               b(3) = (  0.000000  0.000000  1.488987 )

     PseudoPot. # 1 for Sn read from file:
     ../../Pseudo_potentials/Sn_PBE.upf
     MD5 check sum: 78e6386ae56e929f0568ae8bf606a80c
     Pseudo is Norm-conserving + core correction, Zval = 14.0
     Generated using ONCVPSP code by D. R. Hamann
     Using radial grid of 1628 points,  6 beta functions with:
                l(1) =   0
                l(2) =   0
                l(3) =   1
                l(4) =   1
                l(5) =   2
                l(6) =   2

     PseudoPot. # 2 for O  read from file:
     ../../Pseudo_potentials/O_PBE.upf
     MD5 check sum: 3e3f909f7470e8921608ab6b1f57bbae
     Pseudo is Norm-conserving + core correction, Zval =  6.0
     Generated using ONCVPSP code by D. R. Hamann
     Using radial grid of  936 points,  5 beta functions with:
                l(1) =   0
                l(2) =   0
                l(3) =   1
                l(4) =   1
                l(5) =   2

     atomic species   valence    mass     pseudopotential
        Sn            14.00   118.71000     Sn( 1.00)
        O              6.00    15.99900     O ( 1.00)

      4 Sym. Ops. (no inversion) found

   Cartesian axes

     site n.     atom                  positions (alat units)
         1           Sn  tau(   1) = (  -0.0003320  -0.0003320   0.0000000  )
         2           Sn  tau(   2) = (   0.4996675   0.4996675   0.3357989  )
         3           O   tau(   3) = (   0.8063692   0.1929618   0.3357989  )
         4           O   tau(   4) = (   0.1929618   0.8063692   0.3357989  )
         5           O   tau(   5) = (   0.3063705   0.3063705   0.0000000  )
         6           O   tau(   6) = (   0.6929630   0.6929630   0.0000000  )

     number of k points=    52  Methfessel-Paxton smearing, width (Ry)=  0.0100
                       cart. coord. in units 2pi/alat
        k(    1) = (   0.0000000   0.0000000   0.0000000), wk =   0.0092593
        k(    2) = (   0.0000000   0.0000000   0.2481644), wk =   0.0185185
        k(    3) = (   0.0000000   0.0000000   0.4963289), wk =   0.0185185
        k(    4) = (   0.0000000   0.0000000  -0.7444933), wk =   0.0092593
        k(    5) = (   0.0000000   0.1666667   0.0000000), wk =   0.0370370
        k(    6) = (   0.0000000   0.1666667   0.2481644), wk =   0.0740741
        k(    7) = (   0.0000000   0.1666667   0.4963289), wk =   0.0740741
        k(    8) = (   0.0000000   0.1666667  -0.7444933), wk =   0.0370370
        k(    9) = (   0.0000000   0.3333333   0.0000000), wk =   0.0370370
        k(   10) = (   0.0000000   0.3333333   0.2481644), wk =   0.0740741
        k(   11) = (   0.0000000   0.3333333   0.4963289), wk =   0.0740741
        k(   12) = (   0.0000000   0.3333333  -0.7444933), wk =   0.0370370
        k(   13) = (   0.0000000  -0.5000000   0.0000000), wk =   0.0185185
        k(   14) = (   0.0000000  -0.5000000   0.2481644), wk =   0.0370370
        k(   15) = (   0.0000000  -0.5000000   0.4963289), wk =   0.0370370
        k(   16) = (   0.0000000  -0.5000000  -0.7444933), wk =   0.0185185
        k(   17) = (   0.1666667   0.1666667   0.0000000), wk =   0.0185185
        k(   18) = (   0.1666667   0.1666667   0.2481644), wk =   0.0370370
        k(   19) = (   0.1666667   0.1666667   0.4963289), wk =   0.0370370
        k(   20) = (   0.1666667   0.1666667  -0.7444933), wk =   0.0185185
        k(   21) = (   0.1666667   0.3333333   0.0000000), wk =   0.0370370
        k(   22) = (   0.1666667   0.3333333   0.2481644), wk =   0.0740741
        k(   23) = (   0.1666667   0.3333333   0.4963289), wk =   0.0740741
        k(   24) = (   0.1666667   0.3333333  -0.7444933), wk =   0.0370370
        k(   25) = (   0.1666667  -0.5000000   0.0000000), wk =   0.0370370
        k(   26) = (   0.1666667  -0.5000000   0.2481644), wk =   0.0740741
        k(   27) = (   0.1666667  -0.5000000   0.4963289), wk =   0.0740741
        k(   28) = (   0.1666667  -0.5000000  -0.7444933), wk =   0.0370370
        k(   29) = (   0.3333333   0.3333333   0.0000000), wk =   0.0185185
        k(   30) = (   0.3333333   0.3333333   0.2481644), wk =   0.0370370
        k(   31) = (   0.3333333   0.3333333   0.4963289), wk =   0.0370370
        k(   32) = (   0.3333333   0.3333333  -0.7444933), wk =   0.0185185
        k(   33) = (   0.3333333  -0.5000000   0.0000000), wk =   0.0370370
        k(   34) = (   0.3333333  -0.5000000   0.2481644), wk =   0.0740741
        k(   35) = (   0.3333333  -0.5000000   0.4963289), wk =   0.0740741
        k(   36) = (   0.3333333  -0.5000000  -0.7444933), wk =   0.0370370
        k(   37) = (  -0.5000000  -0.5000000   0.0000000), wk =   0.0092593
        k(   38) = (  -0.5000000  -0.5000000   0.2481644), wk =   0.0185185
        k(   39) = (  -0.5000000  -0.5000000   0.4963289), wk =   0.0185185
        k(   40) = (  -0.5000000  -0.5000000  -0.7444933), wk =   0.0092593
        k(   41) = (   0.1666667  -0.1666667   0.0000000), wk =   0.0185185
        k(   42) = (   0.1666667  -0.1666667   0.2481644), wk =   0.0370370
        k(   43) = (   0.1666667  -0.1666667   0.4963289), wk =   0.0370370
        k(   44) = (   0.1666667  -0.1666667  -0.7444933), wk =   0.0185185
        k(   45) = (   0.3333333  -0.1666667   0.0000000), wk =   0.0370370
        k(   46) = (   0.3333333  -0.1666667   0.2481644), wk =   0.0740741
        k(   47) = (   0.3333333  -0.1666667   0.4963289), wk =   0.0740741
        k(   48) = (   0.3333333  -0.1666667  -0.7444933), wk =   0.0370370
        k(   49) = (   0.3333333  -0.3333333   0.0000000), wk =   0.0185185
        k(   50) = (   0.3333333  -0.3333333   0.2481644), wk =   0.0370370
        k(   51) = (   0.3333333  -0.3333333   0.4963289), wk =   0.0370370
        k(   52) = (   0.3333333  -0.3333333  -0.7444933), wk =   0.0185185

     Check: negative/imaginary core charge=   -0.000002    0.000000

     Initial potential from superposition of free atoms

     starting charge   51.99690, renormalised to   51.99000
     Starting wfc are   34 randomized atomic wfcs

     Self-consistent Calculation

     iteration #  1     ecut=    75.00 Ry     beta= 0.70
     Davidson diagonalization with overlap
     ethr =  1.00E-02,  avg # of iterations =  2.6

     total energy              =    -446.86621705 Ry
     Harris-Foulkes estimate   =    -448.03941626 Ry
     estimated scf accuracy    <       1.59305084 Ry

[...]

     total energy              =    -447.59577993 Ry
     Harris-Foulkes estimate   =    -447.59577993 Ry
     estimated scf accuracy    <          2.1E-19 Ry

     iteration # 22     ecut=    75.00 Ry     beta= 0.70
     Davidson diagonalization with overlap
     ethr =  1.00E-13,  avg # of iterations =  1.0

     End of self-consistent calculation

          k = 0.0000 0.0000 0.0000 (  5609 PWs)   bands (ev):

   -12.1607 -11.5416 -11.3426 -11.3150 -11.3150 -11.2342 -11.2137 -11.1476
   -11.1364 -11.1364  -9.6903  -7.9773  -7.9773  -6.5188   0.9509   5.0295
     5.0295   5.1335   6.0308   6.8881   6.9403   7.6214   7.6214   8.1918
     8.1918   8.8970   9.4979  14.4948  14.9575  14.9575  18.9684

[...]

          k =-0.5000-0.5000 0.0000 (  5660 PWs)   bands (ev):

[...]

          k =-0.5000-0.5000-0.7445 (  5616 PWs)   bands (ev):

[...]

          k = 0.3333-0.3333-0.7445 (  5600 PWs)   bands (ev):

   -12.0700 -11.9549 -11.5465 -11.3705 -11.2301 -11.2282 -11.1621 -11.1604
   -11.1339 -11.1313  -8.2597  -8.0380  -6.7912  -6.6274   1.3225   1.6510
     4.2769   4.2989   4.5283   6.2871   6.3593   7.7630   7.8096   7.8620
     7.9527   8.0548  13.5687  13.8240  16.8232  17.9781  19.0030

     the Fermi energy is     8.8202 ev

!    total energy              =    -447.59577993 Ry
     Harris-Foulkes estimate   =    -447.59577993 Ry
     estimated scf accuracy    <          6.1E-21 Ry

     The total energy is the sum of the following terms:

     one-electron contribution =    -125.65573588 Ry
     hartree contribution      =     101.52125775 Ry
     xc contribution           =    -122.06134240 Ry
     ewald contribution        =    -301.40003973 Ry
     smearing contrib. (-TS)   =       0.00008034 Ry

     convergence has been achieved in  22 iterations

     Forces acting on atoms (cartesian axes, Ry/au):

     atom    1 type  1   force =     0.00000150    0.00000150    0.00000000
     atom    2 type  1   force =     0.00000470    0.00000470    0.00000000
     atom    3 type  2   force =     0.00001505   -0.00001858   -0.00000000
     atom    4 type  2   force =    -0.00001858    0.00001505    0.00000000
     atom    5 type  2   force =     0.00001549    0.00001549    0.00000000
     atom    6 type  2   force =    -0.00001817   -0.00001817    0.00000000

     Total force =     0.000048     Total SCF correction =     0.000000

     Computing stress (Cartesian axis) and pressure

          total   stress  (Ry/bohr**3)                   (kbar)     P=   -7.91
  -0.00005477  -0.00000000   0.00000000         -8.06     -0.00      0.00
  -0.00000000  -0.00005477   0.00000000         -0.00     -8.06      0.00
   0.00000000   0.00000000  -0.00005179          0.00      0.00     -7.62

     Writing output data file SnO2-epw.save

     General routines

     Parallel routines

   This run was terminated on:   5: 5:25  10May2018

   JOB DONE.