     Program PWSCF v.6.2.2 starts on 16Apr2018 at 16:38:33

     R & G space division:  proc/nbgrp/npool/nimage =       2
     Waiting for input...
     Reading input from standard input
Warning: card  &IONS ignored
Warning: card  / ignored
Warning: card  &CELL ignored
Warning: card  / ignored

     Current dimensions of program PWSCF are:
     Max number of different atomic species (ntypx) = 10
     Max number of k-points (npk) =  40000
     Max angular momentum in pseudopotentials (lmaxx) =  3

     Subspace diagonalization in iterative solution of the eigenvalue problem:
     a serial algorithm will be used

     bravais-lattice index     =            6
     lattice parameter (alat)  =       9.1370  a.u.
     unit-cell volume          =     513.8164 (a.u.)^3
     number of atoms/cell      =            6
     number of atomic types    =            2
     number of electrons       =        52.00
     number of Kohn-Sham states=           26
     kinetic-energy cutoff     =      95.0000  Ry
     charge density cutoff     =     380.0000  Ry
     convergence threshold     =      1.0E-20
     mixing beta               =       0.7000
     number of iterations used =            8  plain     mixing
     Exchange-correlation      = PBE ( 1  4  3  4 0 0)

     celldm(1)=   9.137010  celldm(2)=   0.000000  celldm(3)=   0.673590
     celldm(4)=   0.000000  celldm(5)=   0.000000  celldm(6)=   0.000000

     crystal axes: (cart. coord. in units of alat)
               a(1) = (   1.000000   0.000000   0.000000 )
               a(2) = (   0.000000   1.000000   0.000000 )
               a(3) = (   0.000000   0.000000   0.673590 )

     reciprocal axes: (cart. coord. in units 2 pi/alat)
               b(1) = (  1.000000  0.000000  0.000000 )
               b(2) = (  0.000000  1.000000  0.000000 )
               b(3) = (  0.000000  0.000000  1.484583 )

     PseudoPot. # 1 for Sn read from file:
     ../../../Pseudo_potentials/Sn_PBE.upf
     MD5 check sum: 78e6386ae56e929f0568ae8bf606a80c
     Pseudo is Norm-conserving + core correction, Zval = 14.0
     Generated using ONCVPSP code by D. R. Hamann
     Using radial grid of 1628 points,  6 beta functions with:
                l(1) =   0
                l(2) =   0
                l(3) =   1
                l(4) =   1
                l(5) =   2
                l(6) =   2

     PseudoPot. # 2 for O  read from file:
     ../../../Pseudo_potentials/O_PBE.upf
     MD5 check sum: 3e3f909f7470e8921608ab6b1f57bbae
     Pseudo is Norm-conserving + core correction, Zval =  6.0
     Generated using ONCVPSP code by D. R. Hamann
     Using radial grid of  936 points,  5 beta functions with:
                l(1) =   0
                l(2) =   0
                l(3) =   1
                l(4) =   1
                l(5) =   2

     atomic species   valence    mass     pseudopotential
        Sn            14.00   118.71000     Sn( 1.00)
        O              6.00    15.99900     O ( 1.00)

      4 Sym. Ops. (no inversion) found

   Cartesian axes

     site n.     atom                  positions (alat units)
         1           Sn  tau(   1) = (   0.0000000   0.0000000   0.0000000  )
         2           Sn  tau(   2) = (   0.5000000   0.5000000   0.3367950  )
         3           O   tau(   3) = (   0.8060000   0.1930000   0.3367950  )
         4           O   tau(   4) = (   0.1930000   0.8060000   0.3367950  )
         5           O   tau(   5) = (   0.3060000   0.3060000   0.0000000  )
         6           O   tau(   6) = (   0.6930000   0.6930000   0.0000000  )

     number of k points=  2041

     Number of k-points >= 100: set verbosity='high' to print them.

     Initial potential from superposition of free atoms

     starting charge   51.99690, renormalised to   52.00000
     Starting wfc are   34 randomized atomic wfcs

     Self-consistent Calculation

     iteration #  1     ecut=    95.00 Ry     beta= 0.70
     Davidson diagonalization with overlap
     ethr =  1.00E-02,  avg # of iterations =  2.0

     total energy              =    -446.84207810 Ry
     Harris-Foulkes estimate   =    -448.03109148 Ry
     estimated scf accuracy    <       1.61145990 Ry

[...]

     total energy              =    -447.59043644 Ry
     Harris-Foulkes estimate   =    -447.59043644 Ry
     estimated scf accuracy    <          1.8E-20 Ry

     iteration # 32     ecut=    95.00 Ry     beta= 0.70
     Davidson diagonalization with overlap
     ethr =  1.00E-13,  avg # of iterations =  1.0

     End of self-consistent calculation

     Number of k-points >= 100: set verbosity='high' to print the bands.

     highest occupied level (ev):     8.8620

!    total energy              =    -447.59043644 Ry
     Harris-Foulkes estimate   =    -447.59043644 Ry
     estimated scf accuracy    <          3.3E-22 Ry

     The total energy is the sum of the following terms:

     one-electron contribution =    -125.86908218 Ry
     hartree contribution      =     101.55371846 Ry
     xc contribution           =    -122.05630581 Ry
     ewald contribution        =    -301.21876691 Ry

     convergence has been achieved in  32 iterations

     Forces acting on atoms (cartesian axes, Ry/au):

     atom    1 type  1   force =    -0.00103037   -0.00103037    0.00000000
     atom    2 type  1   force =    -0.00126926   -0.00126926    0.00000000
     atom    3 type  2   force =     0.00120222   -0.00120476    0.00000000
     atom    4 type  2   force =    -0.00120476    0.00120222    0.00000000
     atom    5 type  2   force =     0.00235978    0.00235978    0.00000000
     atom    6 type  2   force =    -0.00005761   -0.00005761    0.00000000

     Total force =     0.004720     Total SCF correction =     0.000000

     Computing stress (Cartesian axis) and pressure

          total   stress  (Ry/bohr**3)                   (kbar)     P=   -6.72
  -0.00002803   0.00000011   0.00000000         -4.12      0.02      0.00
   0.00000011  -0.00002803   0.00000000          0.02     -4.12      0.00
  -0.00000000   0.00000000  -0.00008107         -0.00      0.00    -11.93

     Writing output data file SnO2.save

     General routines

     Parallel routines

   This run was terminated on:   1: 9:30  17Apr2018

   JOB DONE.