     Program PHONON v.6.2.2 starts on 28Apr2018 at 17:58:10

     R & G space division:  proc/nbgrp/npool/nimage =       4

     Reading data from directory:
     ./555.save/

     IMPORTANT: XC functional enforced from input :
     Exchange-correlation      = PBE ( 1  4  3  4 0 0)
     Any further DFT definition will be discarded
     Please, verify this is what you really want

     Check: negative/imaginary core charge=   -0.000002    0.000000

     Dynamical matrices for ( 1, 1, 1)  uniform grid of q-points
     (   1 q-points):
       N         xq(1)         xq(2)         xq(3)
       1   0.000000000   0.000000000   0.000000000

     Calculation of q =    0.0000000   0.0000000   0.0000000

     Phonon dispersions for SnO2

     bravais-lattice index     =            6
     lattice parameter (alat)  =       9.1370  a.u.
     unit-cell volume          =     512.3005 (a.u.)^3
     number of atoms/cell      =            6
     number of atomic types    =            2
     kinetic-energy cut-off    =      75.0000  Ry
     charge density cut-off    =     300.0000  Ry
     convergence threshold     =      1.0E-14
     beta                      =       0.7000
     number of iterations used =            4
     Exchange-correlation      = PBE ( 1  4  3  4 0 0)

     celldm(1)=    9.13703  celldm(2)=    1.00000  celldm(3)=    0.67160
     celldm(4)=    0.00000  celldm(5)=    0.00000  celldm(6)=    0.00000

     crystal axes: (cart. coord. in units of alat)
               a(1) = (  1.0000  0.0000  0.0000 )
               a(2) = (  0.0000  1.0000  0.0000 )
               a(3) = (  0.0000  0.0000  0.6716 )

     reciprocal axes: (cart. coord. in units 2 pi/alat)
               b(1) = (  1.0000  0.0000  0.0000 )
               b(2) = (  0.0000  1.0000  0.0000 )
               b(3) = (  0.0000  0.0000  1.4890 )

     Atoms inside the unit cell:

     Cartesian axes

     site n.  atom      mass           positions (alat units)
        1     Sn 118.7100   tau(    1) = (   -0.00033   -0.00033    0.00000  )
        2     Sn 118.7100   tau(    2) = (    0.49967    0.49967    0.33580  )
        3     O   15.9990   tau(    3) = (    0.80637    0.19296    0.33580  )
        4     O   15.9990   tau(    4) = (    0.19296    0.80637    0.33580  )
        5     O   15.9990   tau(    5) = (    0.30637    0.30637    0.00000  )
        6     O   15.9990   tau(    6) = (    0.69296    0.69296    0.00000  )

     Computing dynamical matrix for
                    q = (   0.0000000   0.0000000   0.0000000 )

      5 Sym.Ops. (with q -> -q+G )

     G cutoff =  634.4127  (  11237 G-vectors)     FFT grid: ( 54, 54, 36)
     number of k points=    27

     PseudoPot. # 1 for Sn read from file:
     ../../../Pseudo_potentials/Sn_PBE.upf
     MD5 check sum: 78e6386ae56e929f0568ae8bf606a80c
     Pseudo is Norm-conserving + core correction, Zval = 14.0
     Generated using ONCVPSP code by D. R. Hamann
     Using radial grid of 1628 points,  6 beta functions with:
                l(1) =   0
                l(2) =   0
                l(3) =   1
                l(4) =   1
                l(5) =   2
                l(6) =   2

     PseudoPot. # 2 for O  read from file:
     ../../../Pseudo_potentials/O_PBE.upf
     MD5 check sum: 3e3f909f7470e8921608ab6b1f57bbae
     Pseudo is Norm-conserving + core correction, Zval =  6.0
     Generated using ONCVPSP code by D. R. Hamann
     Using radial grid of  936 points,  5 beta functions with:
                l(1) =   0
                l(2) =   0
                l(3) =   1
                l(4) =   1
                l(5) =   2

     Mode symmetry, C_2v (mm2)  point group:

     Electric field:
     Dielectric constant
     Born effective charges in two ways

     Atomic displacements:
     There are  18 irreducible representations

     Representation     1      1 modes -A_1  D_1  S_1  To be done

[...]

     Representation    18      1 modes -B_2  D_4  S_4  To be done

     Alpha used in Ewald sum =   2.7000

     Electric Fields Calculation

      thresh= 1.000E-02 alpha_mix =  0.700 |ddv_scf|^2 =  5.100E-08

[...]

     End of electric fields calculation

          Dielectric constant in cartesian axis

          (       5.225934664       0.000000008       0.000000000 )
          (       0.000000008       5.225934664       0.000000000 )
          (       0.000000000       0.000000000       5.222180407 )

          Effective charges (d Force / dE) in cartesian axis

           atom      1   Sn
      Ex  (        4.17613        0.56722        0.00000 )
      Ey  (        0.56722        4.17613        0.00000 )
      Ez  (        0.00000        0.00000        4.59196 )
           atom      2   Sn
      Ex  (        4.17613       -0.56722        0.00000 )
      Ey  (       -0.56722        4.17613        0.00000 )
      Ez  (        0.00000        0.00000        4.59196 )
           atom      3   O
      Ex  (       -2.09462        0.82066       -0.00000 )
      Ey  (        0.82064       -2.09458        0.00000 )
      Ez  (        0.00000        0.00000       -2.31585 )
           atom      4   O
      Ex  (       -2.09458        0.82064       -0.00000 )
      Ey  (        0.82066       -2.09462        0.00000 )
      Ez  (        0.00000        0.00000       -2.31585 )
           atom      5   O
      Ex  (       -2.09460       -0.82064        0.00000 )
      Ey  (       -0.82064       -2.09460        0.00000 )
      Ez  (        0.00000        0.00000       -2.31585 )
           atom      6   O
      Ex  (       -2.09461       -0.82066        0.00000 )
      Ey  (       -0.82066       -2.09461       -0.00000 )
      Ez  (        0.00000        0.00000       -2.31586 )

     Representation #  1 mode #   1

     Self-consistent Calculation

[...]

     End of self-consistent calculation

     Convergence has been achieved

[...]

     Representation # 18 mode #  18

     Self-consistent Calculation

[...]

      thresh= 2.997E-08 alpha_mix =  0.700 |ddv_scf|^2 =  6.695E-15

     End of self-consistent calculation

     Convergence has been achieved

     Number of q in the star =    1
     List of q in the star:
          1   0.000000000   0.000000000   0.000000000

          Dielectric constant in cartesian axis

          (       5.225934664       0.000000008       0.000000000 )
          (       0.000000008       5.225934664       0.000000000 )
          (       0.000000000       0.000000000       5.222180407 )

          Effective charges (d Force / dE) in cartesian axis

[...]

          Effective charges (d P / du) in cartesian axis

           atom      1   Sn
      Px  (        4.17596        0.56773        0.00000 )
      Py  (        0.56773        4.17596        0.00000 )
      Pz  (        0.00000        0.00000        4.59211 )
           atom      2   Sn
      Px  (        4.17597       -0.56774        0.00000 )
      Py  (       -0.56774        4.17597        0.00000 )
      Pz  (        0.00000        0.00000        4.59211 )
           atom      3   O
      Px  (       -2.09458        0.82066        0.00000 )
      Py  (        0.82063       -2.09468        0.00000 )
      Pz  (        0.00000        0.00000       -2.31554 )
           atom      4   O
      Px  (       -2.09468        0.82063        0.00000 )
      Py  (        0.82066       -2.09458        0.00000 )
      Pz  (        0.00000        0.00000       -2.31554 )
           atom      5   O
      Px  (       -2.09452       -0.82079        0.00000 )
      Py  (       -0.82079       -2.09452        0.00000 )
      Pz  (        0.00000        0.00000       -2.31555 )
           atom      6   O
      Px  (       -2.09450       -0.82077        0.00000 )
      Py  (       -0.82077       -2.09450        0.00000 )
      Pz  (        0.00000        0.00000       -2.31555 )

     Diagonalizing the dynamical matrix

     q = (    0.000000000   0.000000000   0.000000000 )

     freq (    1) =      -0.648110 [THz] =     -21.618624 [cm-1]
     freq (    2) =      -0.566856 [THz] =     -18.908292 [cm-1]
     freq (    3) =       0.726576 [THz] =      24.235972 [cm-1]
     freq (    4) =       2.926716 [THz] =      97.624749 [cm-1]
     freq (    5) =       4.238518 [THz] =     141.381756 [cm-1]
     freq (    6) =       6.409140 [THz] =     213.785883 [cm-1]
     freq (    7) =       6.410498 [THz] =     213.831206 [cm-1]
     freq (    8) =       7.795697 [THz] =     260.036445 [cm-1]
     freq (    9) =       7.800464 [THz] =     260.195483 [cm-1]
     freq (   10) =      10.047335 [THz] =     335.143016 [cm-1]
     freq (   11) =      13.090911 [THz] =     436.665788 [cm-1]
     freq (   12) =      13.288380 [THz] =     443.252640 [cm-1]
     freq (   13) =      13.300385 [THz] =     443.653094 [cm-1]
     freq (   14) =      15.968315 [THz] =     532.645643 [cm-1]
     freq (   15) =      16.440277 [THz] =     548.388599 [cm-1]
     freq (   16) =      16.440684 [THz] =     548.402196 [cm-1]
     freq (   17) =      17.501537 [THz] =     583.788432 [cm-1]
     freq (   18) =      21.134741 [THz] =     704.979089 [cm-1]

     Mode symmetry, C_2v (mm2)  point group:

     freq (  1 -  1) =        -21.6  [cm-1]   --> A_1  D_1  S_1   I+R
     freq (  2 -  2) =        -18.9  [cm-1]   --> B_1  D_3  S_3   I+R
     freq (  3 -  3) =         24.2  [cm-1]   --> B_2  D_4  S_4   I+R
     freq (  4 -  4) =         97.6  [cm-1]   --> B_1  D_3  S_3   I+R
     freq (  5 -  5) =        141.4  [cm-1]   --> B_2  D_4  S_4   I+R
     freq (  6 -  6) =        213.8  [cm-1]   --> A_1  D_1  S_1   I+R
     freq (  7 -  7) =        213.8  [cm-1]   --> B_1  D_3  S_3   I+R
     freq (  8 -  8) =        260.0  [cm-1]   --> B_1  D_3  S_3   I+R
     freq (  9 -  9) =        260.2  [cm-1]   --> A_1  D_1  S_1   I+R
     freq ( 10 - 10) =        335.1  [cm-1]   --> B_1  D_3  S_3   I+R
     freq ( 11 - 11) =        436.7  [cm-1]   --> B_2  D_4  S_4   I+R
     freq ( 12 - 12) =        443.3  [cm-1]   --> A_2  D_2  S_2   R
     freq ( 13 - 13) =        443.7  [cm-1]   --> B_2  D_4  S_4   I+R
     freq ( 14 - 14) =        532.6  [cm-1]   --> B_2  D_4  S_4   I+R
     freq ( 15 - 15) =        548.4  [cm-1]   --> A_1  D_1  S_1   I+R
     freq ( 16 - 16) =        548.4  [cm-1]   --> B_1  D_3  S_3   I+R
     freq ( 17 - 17) =        583.8  [cm-1]   --> A_1  D_1  S_1   I+R
     freq ( 18 - 18) =        705.0  [cm-1]   --> A_1  D_1  S_1   I+R

     INITIALIZATION:

     DIELECTRIC CONSTANT AND EFFECTIVE CHARGES:

     DYNAMICAL MATRIX:

      General routines

   This run was terminated on:  19: 5: 1  28Apr2018

   JOB DONE.