     Program PHONON v.6.2.2 starts on 29Apr2018 at 21:24:30

     R & G space division:  proc/nbgrp/npool/nimage =       4

     Reading data from directory:
     ./121212.save/

     IMPORTANT: XC functional enforced from input :
     Exchange-correlation      = PBE ( 1  4  3  4 0 0)
     Any further DFT definition will be discarded
     Please, verify this is what you really want

     Check: negative/imaginary core charge=   -0.000002    0.000000

     Dynamical matrices for ( 1, 1, 1)  uniform grid of q-points
     (   1 q-points):
       N         xq(1)         xq(2)         xq(3)
       1   0.000000000   0.000000000   0.000000000

     Calculation of q =    0.0000000   0.0000000   0.0000000

     Phonon dispersions for SnO2

     bravais-lattice index     =            6
     lattice parameter (alat)  =       9.1370  a.u.
     unit-cell volume          =     512.3005 (a.u.)^3
     number of atoms/cell      =            6
     number of atomic types    =            2
     kinetic-energy cut-off    =      75.0000  Ry
     charge density cut-off    =     300.0000  Ry
     convergence threshold     =      1.0E-14
     beta                      =       0.7000
     number of iterations used =            4
     Exchange-correlation      = PBE ( 1  4  3  4 0 0)

     celldm(1)=    9.13703  celldm(2)=    1.00000  celldm(3)=    0.67160
     celldm(4)=    0.00000  celldm(5)=    0.00000  celldm(6)=    0.00000

     crystal axes: (cart. coord. in units of alat)
               a(1) = (  1.0000  0.0000  0.0000 )
               a(2) = (  0.0000  1.0000  0.0000 )
               a(3) = (  0.0000  0.0000  0.6716 )

     reciprocal axes: (cart. coord. in units 2 pi/alat)
               b(1) = (  1.0000  0.0000  0.0000 )
               b(2) = (  0.0000  1.0000  0.0000 )
               b(3) = (  0.0000  0.0000  1.4890 )

     Atoms inside the unit cell:

     Cartesian axes

     site n.  atom      mass           positions (alat units)
        1     Sn 118.7100   tau(    1) = (   -0.00033   -0.00033    0.00000  )
        2     Sn 118.7100   tau(    2) = (    0.49967    0.49967    0.33580  )
        3     O   15.9990   tau(    3) = (    0.80637    0.19296    0.33580  )
        4     O   15.9990   tau(    4) = (    0.19296    0.80637    0.33580  )
        5     O   15.9990   tau(    5) = (    0.30637    0.30637    0.00000  )
        6     O   15.9990   tau(    6) = (    0.69296    0.69296    0.00000  )

     Computing dynamical matrix for
                    q = (   0.0000000   0.0000000   0.0000000 )

      5 Sym.Ops. (with q -> -q+G )

     G cutoff =  634.4127  (  11237 G-vectors)     FFT grid: ( 54, 54, 36)
     number of k points=   301

     PseudoPot. # 1 for Sn read from file:
     ../../../Pseudo_potentials/Sn_PBE.upf
     MD5 check sum: 78e6386ae56e929f0568ae8bf606a80c
     Pseudo is Norm-conserving + core correction, Zval = 14.0
     Generated using ONCVPSP code by D. R. Hamann
     Using radial grid of 1628 points,  6 beta functions with:
                l(1) =   0
                l(2) =   0
                l(3) =   1
                l(4) =   1
                l(5) =   2
                l(6) =   2

     PseudoPot. # 2 for O  read from file:
     ../../../Pseudo_potentials/O_PBE.upf
     MD5 check sum: 3e3f909f7470e8921608ab6b1f57bbae
     Pseudo is Norm-conserving + core correction, Zval =  6.0
     Generated using ONCVPSP code by D. R. Hamann
     Using radial grid of  936 points,  5 beta functions with:
                l(1) =   0
                l(2) =   0
                l(3) =   1
                l(4) =   1
                l(5) =   2

     Mode symmetry, C_2v (mm2)  point group:

     Electric field:
     Dielectric constant
     Born effective charges in two ways

     Atomic displacements:
     There are  18 irreducible representations

     Representation     1      1 modes -A_1  D_1  S_1  To be done

[...]

     Representation    18      1 modes -B_2  D_4  S_4  To be done

     Alpha used in Ewald sum =   2.7000

     Electric Fields Calculation

      thresh= 1.000E-02 alpha_mix =  0.700 |ddv_scf|^2 =  4.943E-08

[...]

     End of electric fields calculation

          Dielectric constant in cartesian axis

          (       4.847204618       0.000000005       0.000000000 )
          (       0.000000005       4.847204618       0.000000000 )
          (       0.000000000       0.000000000       5.106774546 )

          Effective charges (d Force / dE) in cartesian axis

           atom      1   Sn
      Ex  (        4.18470        0.56161        0.00000 )
      Ey  (        0.56161        4.18470        0.00000 )
      Ez  (        0.00000        0.00000        4.59630 )
           atom      2   Sn
      Ex  (        4.18470       -0.56161        0.00000 )
      Ey  (       -0.56161        4.18470        0.00000 )
      Ez  (        0.00000        0.00000        4.59630 )
           atom      3   O
      Ex  (       -2.09235        0.79922       -0.00000 )
      Ey  (        0.79921       -2.09231        0.00000 )
      Ez  (        0.00000        0.00000       -2.29820 )
           atom      4   O
      Ex  (       -2.09231        0.79921       -0.00000 )
      Ey  (        0.79922       -2.09235        0.00000 )
      Ez  (        0.00000        0.00000       -2.29820 )
           atom      5   O
      Ex  (       -2.09232       -0.79921        0.00000 )
      Ey  (       -0.79921       -2.09232       -0.00000 )
      Ez  (        0.00000        0.00000       -2.29820 )
           atom      6   O
      Ex  (       -2.09234       -0.79922        0.00000 )
      Ey  (       -0.79922       -2.09234        0.00000 )
      Ez  (        0.00000       -0.00000       -2.29820 )

     Representation #  1 mode #   1

     Self-consistent Calculation

[...]

     End of self-consistent calculation

     Convergence has been achieved

[...]

     Representation # 18 mode #  18

     Self-consistent Calculation

[...]

      thresh= 2.992E-08 alpha_mix =  0.700 |ddv_scf|^2 =  6.675E-15

     End of self-consistent calculation

     Convergence has been achieved

     Number of q in the star =    1
     List of q in the star:
          1   0.000000000   0.000000000   0.000000000

          Dielectric constant in cartesian axis

          (       4.847204618       0.000000005       0.000000000 )
          (       0.000000005       4.847204618       0.000000000 )
          (       0.000000000       0.000000000       5.106774546 )

          Effective charges (d Force / dE) in cartesian axis

[...]

          Effective charges (d P / du) in cartesian axis

           atom      1   Sn
      Px  (        4.18452        0.56211        0.00000 )
      Py  (        0.56211        4.18452       -0.00000 )
      Pz  (        0.00000        0.00000        4.59646 )
           atom      2   Sn
      Px  (        4.18452       -0.56211        0.00000 )
      Py  (       -0.56211        4.18452        0.00000 )
      Pz  (        0.00000       -0.00000        4.59646 )
           atom      3   O
      Px  (       -2.09230        0.79923       -0.00000 )
      Py  (        0.79919       -2.09239        0.00000 )
      Pz  (        0.00000        0.00000       -2.29789 )
           atom      4   O
      Px  (       -2.09239        0.79919        0.00000 )
      Py  (        0.79923       -2.09230        0.00000 )
      Pz  (        0.00000        0.00000       -2.29789 )
           atom      5   O
      Px  (       -2.09223       -0.79935        0.00000 )
      Py  (       -0.79935       -2.09223        0.00000 )
      Pz  (        0.00000        0.00000       -2.29789 )
           atom      6   O
      Px  (       -2.09222       -0.79933        0.00000 )
      Py  (       -0.79933       -2.09222        0.00000 )
      Pz  (        0.00000        0.00000       -2.29790 )

     Diagonalizing the dynamical matrix

     q = (    0.000000000   0.000000000   0.000000000 )

     freq (    1) =      -0.654569 [THz] =     -21.834085 [cm-1]
     freq (    2) =      -0.565995 [THz] =     -18.879566 [cm-1]
     freq (    3) =       0.727146 [THz] =      24.254982 [cm-1]
     freq (    4) =       2.977111 [THz] =      99.305723 [cm-1]
     freq (    5) =       4.238341 [THz] =     141.375846 [cm-1]
     freq (    6) =       6.413670 [THz] =     213.936999 [cm-1]
     freq (    7) =       6.414909 [THz] =     213.978329 [cm-1]
     freq (    8) =       7.794496 [THz] =     259.996410 [cm-1]
     freq (    9) =       7.797167 [THz] =     260.085485 [cm-1]
     freq (   10) =      10.042501 [THz] =     334.981773 [cm-1]
     freq (   11) =      13.091044 [THz] =     436.670219 [cm-1]
     freq (   12) =      13.288942 [THz] =     443.271403 [cm-1]
     freq (   13) =      13.301431 [THz] =     443.687990 [cm-1]
     freq (   14) =      15.970887 [THz] =     532.731450 [cm-1]
     freq (   15) =      16.441601 [THz] =     548.432787 [cm-1]
     freq (   16) =      16.441931 [THz] =     548.443785 [cm-1]
     freq (   17) =      17.498467 [THz] =     583.686047 [cm-1]
     freq (   18) =      21.132687 [THz] =     704.910552 [cm-1]

     Mode symmetry, C_2v (mm2)  point group:

     freq (  1 -  1) =        -21.8  [cm-1]   --> A_1  D_1  S_1   I+R
     freq (  2 -  2) =        -18.9  [cm-1]   --> B_1  D_3  S_3   I+R
     freq (  3 -  3) =         24.3  [cm-1]   --> B_2  D_4  S_4   I+R
     freq (  4 -  4) =         99.3  [cm-1]   --> B_1  D_3  S_3   I+R
     freq (  5 -  5) =        141.4  [cm-1]   --> B_2  D_4  S_4   I+R
     freq (  6 -  6) =        213.9  [cm-1]   --> A_1  D_1  S_1   I+R
     freq (  7 -  7) =        214.0  [cm-1]   --> B_1  D_3  S_3   I+R
     freq (  8 -  8) =        260.0  [cm-1]   --> B_1  D_3  S_3   I+R
     freq (  9 -  9) =        260.1  [cm-1]   --> A_1  D_1  S_1   I+R
     freq ( 10 - 10) =        335.0  [cm-1]   --> B_1  D_3  S_3   I+R
     freq ( 11 - 11) =        436.7  [cm-1]   --> B_2  D_4  S_4   I+R
     freq ( 12 - 12) =        443.3  [cm-1]   --> A_2  D_2  S_2   R
     freq ( 13 - 13) =        443.7  [cm-1]   --> B_2  D_4  S_4   I+R
     freq ( 14 - 14) =        532.7  [cm-1]   --> B_2  D_4  S_4   I+R
     freq ( 15 - 15) =        548.4  [cm-1]   --> A_1  D_1  S_1   I+R
     freq ( 16 - 16) =        548.4  [cm-1]   --> B_1  D_3  S_3   I+R
     freq ( 17 - 17) =        583.7  [cm-1]   --> A_1  D_1  S_1   I+R
     freq ( 18 - 18) =        704.9  [cm-1]   --> A_1  D_1  S_1   I+R

     INITIALIZATION:

     DIELECTRIC CONSTANT AND EFFECTIVE CHARGES:

     DYNAMICAL MATRIX:

      General routines

   This run was terminated on:  12:49: 3   1May2018

   JOB DONE.