     Program PWSCF v.6.2.2 starts on 28Apr2018 at 17:44:43

     R & G space division:  proc/nbgrp/npool/nimage =       2
     Waiting for input...
     Reading input from standard input
Warning: card  &IONS ignored
Warning: card  / ignored
Warning: card  &CELL ignored
Warning: card  / ignored

     Current dimensions of program PWSCF are:
     Max number of different atomic species (ntypx) = 10
     Max number of k-points (npk) =  40000
     Max angular momentum in pseudopotentials (lmaxx) =  3

     Subspace diagonalization in iterative solution of the eigenvalue problem:
     a serial algorithm will be used

     bravais-lattice index     =            6
     lattice parameter (alat)  =       9.1370  a.u.
     unit-cell volume          =     512.3005 (a.u.)^3
     number of atoms/cell      =            6
     number of atomic types    =            2
     number of electrons       =        52.00
     number of Kohn-Sham states=           26
     kinetic-energy cutoff     =      75.0000  Ry
     charge density cutoff     =     300.0000  Ry
     convergence threshold     =      1.0E-20
     mixing beta               =       0.7000
     number of iterations used =            8  plain     mixing
     Exchange-correlation      = PBE ( 1  4  3  4 0 0)

     celldm(1)=   9.137033  celldm(2)=   0.000000  celldm(3)=   0.671598
     celldm(4)=   0.000000  celldm(5)=   0.000000  celldm(6)=   0.000000

     crystal axes: (cart. coord. in units of alat)
               a(1) = (   1.000000   0.000000   0.000000 )
               a(2) = (   0.000000   1.000000   0.000000 )
               a(3) = (   0.000000   0.000000   0.671598 )

     reciprocal axes: (cart. coord. in units 2 pi/alat)
               b(1) = (  1.000000  0.000000  0.000000 )
               b(2) = (  0.000000  1.000000  0.000000 )
               b(3) = (  0.000000  0.000000  1.488987 )

     PseudoPot. # 1 for Sn read from file:
     ../../../Pseudo_potentials/Sn_PBE.upf
     MD5 check sum: 78e6386ae56e929f0568ae8bf606a80c
     Pseudo is Norm-conserving + core correction, Zval = 14.0
     Generated using ONCVPSP code by D. R. Hamann
     Using radial grid of 1628 points,  6 beta functions with:
                l(1) =   0
                l(2) =   0
                l(3) =   1
                l(4) =   1
                l(5) =   2
                l(6) =   2

     PseudoPot. # 2 for O  read from file:
     ../../../Pseudo_potentials/O_PBE.upf
     MD5 check sum: 3e3f909f7470e8921608ab6b1f57bbae
     Pseudo is Norm-conserving + core correction, Zval =  6.0
     Generated using ONCVPSP code by D. R. Hamann
     Using radial grid of  936 points,  5 beta functions with:
                l(1) =   0
                l(2) =   0
                l(3) =   1
                l(4) =   1
                l(5) =   2

     atomic species   valence    mass     pseudopotential
        Sn            14.00   118.71000     Sn( 1.00)
        O              6.00    15.99900     O ( 1.00)

      4 Sym. Ops. (no inversion) found

   Cartesian axes

     site n.     atom                  positions (alat units)
         1           Sn  tau(   1) = (  -0.0003320  -0.0003320   0.0000000  )
         2           Sn  tau(   2) = (   0.4996675   0.4996675   0.3357989  )
         3           O   tau(   3) = (   0.8063692   0.1929618   0.3357989  )
         4           O   tau(   4) = (   0.1929618   0.8063692   0.3357989  )
         5           O   tau(   5) = (   0.3063705   0.3063705   0.0000000  )
         6           O   tau(   6) = (   0.6929630   0.6929630   0.0000000  )

     number of k points=    27
                       cart. coord. in units 2pi/alat
        k(    1) = (   0.0000000   0.0000000   0.0000000), wk =   0.0160000
        k(    2) = (   0.0000000   0.0000000   0.2977973), wk =   0.0320000
        k(    3) = (   0.0000000   0.0000000   0.5955946), wk =   0.0320000
        k(    4) = (   0.0000000   0.2000000   0.0000000), wk =   0.0640000
        k(    5) = (   0.0000000   0.2000000   0.2977973), wk =   0.1280000
        k(    6) = (   0.0000000   0.2000000   0.5955946), wk =   0.1280000
        k(    7) = (   0.0000000   0.4000000   0.0000000), wk =   0.0640000
        k(    8) = (   0.0000000   0.4000000   0.2977973), wk =   0.1280000
        k(    9) = (   0.0000000   0.4000000   0.5955946), wk =   0.1280000
        k(   10) = (   0.2000000   0.2000000   0.0000000), wk =   0.0320000
        k(   11) = (   0.2000000   0.2000000   0.2977973), wk =   0.0640000
        k(   12) = (   0.2000000   0.2000000   0.5955946), wk =   0.0640000
        k(   13) = (   0.2000000   0.4000000   0.0000000), wk =   0.0640000
        k(   14) = (   0.2000000   0.4000000   0.2977973), wk =   0.1280000
        k(   15) = (   0.2000000   0.4000000   0.5955946), wk =   0.1280000
        k(   16) = (   0.4000000   0.4000000   0.0000000), wk =   0.0320000
        k(   17) = (   0.4000000   0.4000000   0.2977973), wk =   0.0640000
        k(   18) = (   0.4000000   0.4000000   0.5955946), wk =   0.0640000
        k(   19) = (   0.2000000  -0.2000000   0.0000000), wk =   0.0320000
        k(   20) = (   0.2000000  -0.2000000   0.2977973), wk =   0.0640000
        k(   21) = (   0.2000000  -0.2000000   0.5955946), wk =   0.0640000
        k(   22) = (   0.4000000  -0.2000000   0.0000000), wk =   0.0640000
        k(   23) = (   0.4000000  -0.2000000   0.2977973), wk =   0.1280000
        k(   24) = (   0.4000000  -0.2000000   0.5955946), wk =   0.1280000
        k(   25) = (   0.4000000  -0.4000000   0.0000000), wk =   0.0320000
        k(   26) = (   0.4000000  -0.4000000   0.2977973), wk =   0.0640000
        k(   27) = (   0.4000000  -0.4000000   0.5955946), wk =   0.0640000

     Check: negative/imaginary core charge=   -0.000002    0.000000

     Initial potential from superposition of free atoms

     starting charge   51.99690, renormalised to   52.00000
     Starting wfc are   34 randomized atomic wfcs

     Self-consistent Calculation

     iteration #  1     ecut=    75.00 Ry     beta= 0.70
     Davidson diagonalization with overlap
     ethr =  1.00E-02,  avg # of iterations =  2.0

     total energy              =    -446.84790627 Ry
     Harris-Foulkes estimate   =    -448.03082115 Ry
     estimated scf accuracy    <       1.60501309 Ry

[...]

     total energy              =    -447.58913629 Ry
     Harris-Foulkes estimate   =    -447.58913629 Ry
     estimated scf accuracy    <          4.0E-20 Ry

     iteration # 39     ecut=    75.00 Ry     beta= 0.70
     Davidson diagonalization with overlap
     ethr =  1.00E-13,  avg # of iterations =  1.0

     End of self-consistent calculation

          k = 0.0000 0.0000 0.0000 (  5609 PWs)   bands (ev):

   -12.1620 -11.5440 -11.3455 -11.3177 -11.3177 -11.2370 -11.2166 -11.1505
   -11.1392 -11.1392  -9.6875  -7.9729  -7.9729  -6.5157   0.9513   5.0319
     5.0319   5.1358   6.0341   6.8910   6.9437   7.6249   7.6249   8.1970
     8.1970   8.9031

[...]

          k = 0.4000-0.4000 0.5956 (  5592 PWs)   bands (ev):

   -11.9745 -11.9077 -11.5808 -11.4842 -11.2247 -11.2226 -11.1663 -11.1648
   -11.1642 -11.1618  -8.1728  -8.0038  -6.9150  -6.8036   1.3964   1.5322
     4.4074   4.4126   5.1989   6.2262   6.3784   7.3158   7.9136   7.9475
     8.1026   8.1607

     highest occupied level (ev):     8.9031

!    total energy              =    -447.58913629 Ry
     Harris-Foulkes estimate   =    -447.58913629 Ry
     estimated scf accuracy    <          7.8E-21 Ry

     The total energy is the sum of the following terms:

     one-electron contribution =    -125.64540485 Ry
     hartree contribution      =     101.52821975 Ry
     xc contribution           =    -122.07191147 Ry
     ewald contribution        =    -301.40003973 Ry

     convergence has been achieved in  39 iterations

     Forces acting on atoms (cartesian axes, Ry/au):

     atom    1 type  1   force =     0.00000148    0.00000148    0.00000000
     atom    2 type  1   force =     0.00000473    0.00000473    0.00000000
     atom    3 type  2   force =     0.00006157   -0.00006508   -0.00000000
     atom    4 type  2   force =    -0.00006508    0.00006157    0.00000000
     atom    5 type  2   force =     0.00006199    0.00006199    0.00000000
     atom    6 type  2   force =    -0.00006468   -0.00006468    0.00000000

     Total force =     0.000179     Total SCF correction =     0.000000

     Computing stress (Cartesian axis) and pressure

          total   stress  (Ry/bohr**3)                   (kbar)     P=   -4.96
  -0.00003492  -0.00000000   0.00000000         -5.14     -0.00      0.00
  -0.00000000  -0.00003492   0.00000000         -0.00     -5.14      0.00
   0.00000000   0.00000000  -0.00003135          0.00      0.00     -4.61

     Writing output data file SnO2.save

     General routines

     Parallel routines

   This run was terminated on:  17:50:12  28Apr2018

   JOB DONE.