     Program PHONON v.6.2.2 starts on  5May2018 at  1: 3:42

     R & G space division:  proc/nbgrp/npool/nimage =       8

     Reading data from directory:
     ./444.save/

     IMPORTANT: XC functional enforced from input :
     Exchange-correlation      = PBE ( 1  4  3  4 0 0)
     Any further DFT definition will be discarded
     Please, verify this is what you really want

     Check: negative/imaginary core charge=   -0.000002    0.000000

     Dynamical matrices for ( 4, 4, 4)  uniform grid of q-points
     (  21 q-points):
       N         xq(1)         xq(2)         xq(3)
       1   0.000000000   0.000000000   0.000000000
       2   0.000000000   0.000000000   0.372246638
       3   0.000000000   0.000000000  -0.744493277
       4   0.000000000   0.250000000   0.000000000
       5   0.000000000   0.250000000   0.372246638
       6   0.000000000   0.250000000  -0.744493277
       7   0.000000000  -0.500000000   0.000000000
       8   0.000000000  -0.500000000   0.372246638
       9   0.000000000  -0.500000000  -0.744493277
      10   0.250000000   0.250000000   0.000000000
      11   0.250000000   0.250000000   0.372246638
      12   0.250000000   0.250000000  -0.744493277
      13   0.250000000  -0.500000000   0.000000000
      14   0.250000000  -0.500000000   0.372246638
      15   0.250000000  -0.500000000  -0.744493277
      16   0.250000000  -0.250000000   0.000000000
      17   0.250000000  -0.250000000   0.372246638
      18   0.250000000  -0.250000000  -0.744493277
      19  -0.500000000  -0.500000000   0.000000000
      20  -0.500000000  -0.500000000   0.372246638
      21  -0.500000000  -0.500000000  -0.744493277

     Calculation of q =    0.0000000   0.0000000   0.0000000

     Phonon dispersions for SnO2

     bravais-lattice index     =            6
     lattice parameter (alat)  =       9.1370  a.u.
     unit-cell volume          =     512.3005 (a.u.)^3
     number of atoms/cell      =            6
     number of atomic types    =            2
     kinetic-energy cut-off    =      75.0000  Ry
     charge density cut-off    =     300.0000  Ry
     convergence threshold     =      1.0E-14
     beta                      =       0.7000
     number of iterations used =            4
     Exchange-correlation      = PBE ( 1  4  3  4 0 0)

     celldm(1)=    9.13703  celldm(2)=    1.00000  celldm(3)=    0.67160
     celldm(4)=    0.00000  celldm(5)=    0.00000  celldm(6)=    0.00000

     crystal axes: (cart. coord. in units of alat)
               a(1) = (  1.0000  0.0000  0.0000 )
               a(2) = (  0.0000  1.0000  0.0000 )
               a(3) = (  0.0000  0.0000  0.6716 )

     reciprocal axes: (cart. coord. in units 2 pi/alat)
               b(1) = (  1.0000  0.0000  0.0000 )
               b(2) = (  0.0000  1.0000  0.0000 )
               b(3) = (  0.0000  0.0000  1.4890 )

     Atoms inside the unit cell:

     Cartesian axes

     site n.  atom      mass           positions (alat units)
        1     Sn 118.7100   tau(    1) = (   -0.00033   -0.00033    0.00000  )
        2     Sn 118.7100   tau(    2) = (    0.49967    0.49967    0.33580  )
        3     O   15.9990   tau(    3) = (    0.80637    0.19296    0.33580  )
        4     O   15.9990   tau(    4) = (    0.19296    0.80637    0.33580  )
        5     O   15.9990   tau(    5) = (    0.30637    0.30637    0.00000  )
        6     O   15.9990   tau(    6) = (    0.69296    0.69296    0.00000  )

     Computing dynamical matrix for
                    q = (   0.0000000   0.0000000   0.0000000 )

      5 Sym.Ops. (with q -> -q+G )

     G cutoff =  634.4127  (   5619 G-vectors)     FFT grid: ( 54, 54, 36)
     number of k points=    21

     PseudoPot. # 1 for Sn read from file:
     ../../../Pseudo_potentials/Sn_PBE.upf
     MD5 check sum: 78e6386ae56e929f0568ae8bf606a80c
     Pseudo is Norm-conserving + core correction, Zval = 14.0
     Generated using ONCVPSP code by D. R. Hamann
     Using radial grid of 1628 points,  6 beta functions with:
                l(1) =   0
                l(2) =   0
                l(3) =   1
                l(4) =   1
                l(5) =   2
                l(6) =   2

     PseudoPot. # 2 for O  read from file:
     ../../../Pseudo_potentials/O_PBE.upf
     MD5 check sum: 3e3f909f7470e8921608ab6b1f57bbae
     Pseudo is Norm-conserving + core correction, Zval =  6.0
     Generated using ONCVPSP code by D. R. Hamann
     Using radial grid of  936 points,  5 beta functions with:
                l(1) =   0
                l(2) =   0
                l(3) =   1
                l(4) =   1
                l(5) =   2

     Mode symmetry, C_2v (mm2)  point group:

     Electric field:
     Dielectric constant
     Born effective charges in two ways

     Atomic displacements:
     There are  18 irreducible representations

     Representation     1      1 modes -A_1  D_1  S_1  To be done

[...]

     Alpha used in Ewald sum =   2.7000

     Electric Fields Calculation

      thresh= 1.000E-02 alpha_mix =  0.700 |ddv_scf|^2 =  4.343E-08

[...]

     End of electric fields calculation

          Dielectric constant in cartesian axis

          (       5.792031173       0.000000002       0.000000000 )
          (       0.000000002       5.792031173       0.000000000 )
          (      -0.000000000      -0.000000000       5.429848679 )

          Effective charges (d Force / dE) in cartesian axis

           atom      1   Sn
      Ex  (        4.16234        0.57555        0.00000 )
      Ey  (        0.57555        4.16234        0.00000 )
      Ez  (        0.00000       -0.00000        4.58746 )
           atom      2   Sn
      Ex  (        4.16234       -0.57555        0.00000 )
      Ey  (       -0.57555        4.16234        0.00000 )
      Ez  (        0.00000        0.00000        4.58746 )
           atom      3   O
      Ex  (       -2.10094        0.85825        0.00000 )
      Ey  (        0.85824       -2.10090        0.00000 )
      Ez  (        0.00000        0.00000       -2.35608 )
           atom      4   O
      Ex  (       -2.10090        0.85824        0.00000 )
      Ey  (        0.85825       -2.10094        0.00000 )
      Ez  (        0.00000        0.00000       -2.35608 )
           atom      5   O
      Ex  (       -2.10091       -0.85823        0.00000 )
      Ey  (       -0.85823       -2.10091        0.00000 )
      Ez  (       -0.00000        0.00000       -2.35608 )
           atom      6   O
      Ex  (       -2.10093       -0.85825        0.00000 )
      Ey  (       -0.85825       -2.10093        0.00000 )
      Ez  (       -0.00000       -0.00000       -2.35608 )

     Representation #  1 mode #   1

     Self-consistent Calculation

[...]

     End of self-consistent calculation

     Convergence has been achieved

[...]

     Number of q in the star =    1
     List of q in the star:
          1   0.000000000   0.000000000   0.000000000

          Dielectric constant in cartesian axis

          (       5.792031173       0.000000002       0.000000000 )
          (       0.000000002       5.792031173       0.000000000 )
          (      -0.000000000      -0.000000000       5.429848679 )

          Effective charges (d Force / dE) in cartesian axis

[...]

          Effective charges (d P / du) in cartesian axis

           atom      1   Sn
      Px  (        4.16221        0.57610        0.00000 )
      Py  (        0.57610        4.16221        0.00000 )
      Pz  (        0.00000        0.00000        4.58761 )
           atom      2   Sn
      Px  (        4.16221       -0.57610       -0.00000 )
      Py  (       -0.57610        4.16221       -0.00000 )
      Pz  (        0.00000        0.00000        4.58761 )
           atom      3   O
      Px  (       -2.10098        0.85819       -0.00000 )
      Py  (        0.85816       -2.10109       -0.00000 )
      Pz  (       -0.00000        0.00000       -2.35576 )
           atom      4   O
      Px  (       -2.10109        0.85816       -0.00000 )
      Py  (        0.85819       -2.10098       -0.00000 )
      Pz  (       -0.00000       -0.00000       -2.35576 )
           atom      5   O
      Px  (       -2.10086       -0.85838        0.00000 )
      Py  (       -0.85838       -2.10086        0.00000 )
      Pz  (        0.00000        0.00000       -2.35577 )
           atom      6   O
      Px  (       -2.10084       -0.85837        0.00000 )
      Py  (       -0.85837       -2.10084        0.00000 )
      Pz  (        0.00000        0.00000       -2.35577 )

     Diagonalizing the dynamical matrix

     q = (    0.000000000   0.000000000   0.000000000 )

     freq (    1) =      -0.650550 [THz] =     -21.700020 [cm-1]
     freq (    2) =      -0.567978 [THz] =     -18.945697 [cm-1]
     freq (    3) =       0.726167 [THz] =      24.222338 [cm-1]
     freq (    4) =       2.855115 [THz] =      95.236400 [cm-1]
     freq (    5) =       4.239844 [THz] =     141.425976 [cm-1]
     freq (    6) =       6.397459 [THz] =     213.396259 [cm-1]
     freq (    7) =       6.404125 [THz] =     213.618601 [cm-1]
     freq (    8) =       7.792288 [THz] =     259.922734 [cm-1]
     freq (    9) =       7.796430 [THz] =     260.060898 [cm-1]
     freq (   10) =      10.049145 [THz] =     335.203386 [cm-1]
     freq (   11) =      13.088569 [THz] =     436.587664 [cm-1]
     freq (   12) =      13.286814 [THz] =     443.200407 [cm-1]
     freq (   13) =      13.298546 [THz] =     443.591740 [cm-1]
     freq (   14) =      15.964236 [THz] =     532.509583 [cm-1]
     freq (   15) =      16.433189 [THz] =     548.152177 [cm-1]
     freq (   16) =      16.433955 [THz] =     548.177742 [cm-1]
     freq (   17) =      17.506503 [THz] =     583.954097 [cm-1]
     freq (   18) =      21.136642 [THz] =     705.042484 [cm-1]

[...]

     freq (  1 -  1) =        -21.7  [cm-1]   --> A_1  D_1  S_1   I+R
     freq (  2 -  2) =        -18.9  [cm-1]   --> B_1  D_3  S_3   I+R
     freq (  3 -  3) =         24.2  [cm-1]   --> B_2  D_4  S_4   I+R
     freq (  4 -  4) =         95.2  [cm-1]   --> B_1  D_3  S_3   I+R
     freq (  5 -  5) =        141.4  [cm-1]   --> B_2  D_4  S_4   I+R
     freq (  6 -  6) =        213.4  [cm-1]   --> B_1  D_3  S_3   I+R
     freq (  7 -  7) =        213.6  [cm-1]   --> A_1  D_1  S_1   I+R
     freq (  8 -  8) =        259.9  [cm-1]   --> A_1  D_1  S_1   I+R
     freq (  9 -  9) =        260.1  [cm-1]   --> B_1  D_3  S_3   I+R
     freq ( 10 - 10) =        335.2  [cm-1]   --> B_1  D_3  S_3   I+R
     freq ( 11 - 11) =        436.6  [cm-1]   --> B_2  D_4  S_4   I+R
     freq ( 12 - 12) =        443.2  [cm-1]   --> A_2  D_2  S_2   R
     freq ( 13 - 13) =        443.6  [cm-1]   --> B_2  D_4  S_4   I+R
     freq ( 14 - 14) =        532.5  [cm-1]   --> B_2  D_4  S_4   I+R
     freq ( 15 - 15) =        548.2  [cm-1]   --> A_1  D_1  S_1   I+R
     freq ( 16 - 16) =        548.2  [cm-1]   --> B_1  D_3  S_3   I+R
     freq ( 17 - 17) =        584.0  [cm-1]   --> A_1  D_1  S_1   I+R
     freq ( 18 - 18) =        705.0  [cm-1]   --> A_1  D_1  S_1   I+R

[...]

     Title:
     Phonon dispersions for SnO2

     bravais-lattice index     =            6
[...]
     freq (  4 -  4) =        165.1  [cm-1]   --> A''
     freq (  5 -  5) =        216.2  [cm-1]   --> A'
     freq (  6 -  6) =        216.3  [cm-1]   --> A''
     freq (  7 -  7) =        235.2  [cm-1]   --> A'
     freq (  8 -  8) =        235.3  [cm-1]   --> A''
     freq (  9 -  9) =        300.2  [cm-1]   --> A'
     freq ( 10 - 10) =        300.2  [cm-1]   --> A''
     freq ( 11 - 11) =        463.0  [cm-1]   --> A'
     freq ( 12 - 12) =        463.0  [cm-1]   --> A''
     freq ( 13 - 13) =        528.9  [cm-1]   --> A'
     freq ( 14 - 14) =        529.0  [cm-1]   --> A''
     freq ( 15 - 15) =        567.2  [cm-1]   --> A'
     freq ( 16 - 16) =        567.2  [cm-1]   --> A''
     freq ( 17 - 17) =        663.9  [cm-1]   --> A''
     freq ( 18 - 18) =        664.0  [cm-1]   --> A'

[...]

     freq (  1 -  1) =         49.1  [cm-1]   --> A'
     freq (  2 -  2) =         81.9  [cm-1]   --> A''
     freq (  3 -  3) =        128.2  [cm-1]   --> A''
     freq (  4 -  4) =        146.7  [cm-1]   --> A'
     freq (  5 -  5) =        156.4  [cm-1]   --> A'
     freq (  6 -  6) =        186.8  [cm-1]   --> A'
     freq (  7 -  7) =        216.6  [cm-1]   --> A'
     freq (  8 -  8) =        251.3  [cm-1]   --> A'
     freq (  9 -  9) =        309.3  [cm-1]   --> A'
     freq ( 10 - 10) =        329.3  [cm-1]   --> A'
     freq ( 11 - 11) =        428.8  [cm-1]   --> A''
     freq ( 12 - 12) =        446.0  [cm-1]   --> A''
     freq ( 13 - 13) =        473.0  [cm-1]   --> A''
     freq ( 14 - 14) =        516.0  [cm-1]   --> A''
     freq ( 15 - 15) =        550.6  [cm-1]   --> A'
     freq ( 16 - 16) =        563.8  [cm-1]   --> A'
     freq ( 17 - 17) =        687.4  [cm-1]   --> A'
     freq ( 18 - 18) =        707.4  [cm-1]   --> A'

[...]

     number of k points=   128

     Number of k-points >= 100: set verbosity='high' to print them.

[...]

     Number of k-points >= 100: set verbosity='high' to print the bands.

[...]

     No symmetry!

[...]

     Representation    18      1 modes -A  To be done

[...]

     Mode symmetry, C_1 (1)     point group:

     freq (  1 -  1) =         87.1  [cm-1]   --> A
     freq (  2 -  2) =        128.9  [cm-1]   --> A
     freq (  3 -  3) =        152.4  [cm-1]   --> A
     freq (  4 -  4) =        163.9  [cm-1]   --> A
     freq (  5 -  5) =        209.2  [cm-1]   --> A
     freq (  6 -  6) =        211.5  [cm-1]   --> A
     freq (  7 -  7) =        228.9  [cm-1]   --> A
     freq (  8 -  8) =        234.3  [cm-1]   --> A
     freq (  9 -  9) =        258.7  [cm-1]   --> A
     freq ( 10 - 10) =        296.4  [cm-1]   --> A
     freq ( 11 - 11) =        458.1  [cm-1]   --> A
     freq ( 12 - 12) =        485.3  [cm-1]   --> A
     freq ( 13 - 13) =        496.3  [cm-1]   --> A
     freq ( 14 - 14) =        535.3  [cm-1]   --> A
     freq ( 15 - 15) =        536.6  [cm-1]   --> A
     freq ( 16 - 16) =        597.1  [cm-1]   --> A
     freq ( 17 - 17) =        659.2  [cm-1]   --> A
     freq ( 18 - 18) =        689.0  [cm-1]   --> A

[...]

     freq (  1 -  1) =        113.4  [cm-1]   --> A''
     freq (  2 -  2) =        123.0  [cm-1]   --> A'
     freq (  3 -  3) =        147.2  [cm-1]   --> A''
     freq (  4 -  4) =        175.6  [cm-1]   --> A'
     freq (  5 -  5) =        217.0  [cm-1]   --> A''
     freq (  6 -  6) =        229.7  [cm-1]   --> A'
     freq (  7 -  7) =        231.7  [cm-1]   --> A'
     freq (  8 -  8) =        243.5  [cm-1]   --> A''
     freq (  9 -  9) =        287.2  [cm-1]   --> A'
     freq ( 10 - 10) =        304.3  [cm-1]   --> A''
     freq ( 11 - 11) =        451.2  [cm-1]   --> A''
     freq ( 12 - 12) =        506.8  [cm-1]   --> A'
     freq ( 13 - 13) =        522.6  [cm-1]   --> A'
     freq ( 14 - 14) =        529.6  [cm-1]   --> A''
     freq ( 15 - 15) =        553.8  [cm-1]   --> A'
     freq ( 16 - 16) =        592.3  [cm-1]   --> A''
     freq ( 17 - 17) =        657.3  [cm-1]   --> A''
     freq ( 18 - 18) =        660.7  [cm-1]   --> A'

[...]

      2 Sym.Ops. (no q -> -q+G )

[...]

     Representation    11      1 modes -A'  To be done

[...]

     Representation    18      1 modes -A''  To be done

[...]

     Mode symmetry, C_s (m)     point group:

     freq (  1 -  1) =         95.4  [cm-1]   --> A'
     freq (  2 -  2) =         95.8  [cm-1]   --> A''
     freq (  3 -  3) =        181.5  [cm-1]   --> A''
     freq (  4 -  4) =        181.6  [cm-1]   --> A'
     freq (  5 -  5) =        213.2  [cm-1]   --> A''
     freq (  6 -  6) =        214.0  [cm-1]   --> A''
     freq (  7 -  7) =        216.2  [cm-1]   --> A'
     freq (  8 -  8) =        216.3  [cm-1]   --> A'
     freq (  9 -  9) =        281.9  [cm-1]   --> A'
     freq ( 10 - 10) =        282.1  [cm-1]   --> A''
     freq ( 11 - 11) =        494.9  [cm-1]   --> A'
     freq ( 12 - 12) =        495.0  [cm-1]   --> A'
     freq ( 13 - 13) =        500.6  [cm-1]   --> A'
     freq ( 14 - 14) =        500.7  [cm-1]   --> A''
     freq ( 15 - 15) =        537.6  [cm-1]   --> A'
     freq ( 16 - 16) =        537.8  [cm-1]   --> A''
     freq ( 17 - 17) =        682.3  [cm-1]   --> A'
     freq ( 18 - 18) =        682.4  [cm-1]   --> A'

     Calculation of q =   -0.5000000  -0.5000000  -0.7444933

     Title:
     Phonon dispersions for SnO2

     bravais-lattice index     =            6
     lattice parameter (alat)  =       9.1370  a.u.
     unit-cell volume          =     512.3005 (a.u.)^3
     number of atoms/cell      =            6
     number of atomic types    =            2
     number of electrons       =        52.00
     number of Kohn-Sham states=           26
     kinetic-energy cutoff     =      75.0000  Ry
     charge density cutoff     =     300.0000  Ry
     Exchange-correlation      = PBE ( 1  4  3  4 0 0)

[...]

     atomic species   valence    mass     pseudopotential
        Sn            14.00   118.71000     Sn( 1.00)
        O              6.00    15.99900     O ( 1.00)

      4 Sym. Ops. (no inversion) found

[...]

     site n.     atom                  positions (alat units)
         1           Sn  tau(   1) = (  -0.0003320  -0.0003320   0.0000000  )
         2           Sn  tau(   2) = (   0.4996675   0.4996675   0.3357989  )
         3           O   tau(   3) = (   0.8063692   0.1929618   0.3357989  )
         4           O   tau(   4) = (   0.1929618   0.8063692   0.3357989  )
         5           O   tau(   5) = (   0.3063705   0.3063705   0.0000000  )
         6           O   tau(   6) = (   0.6929630   0.6929630   0.0000000  )

     number of k points=    42
                       cart. coord. in units 2pi/alat
        k(    1) = (   0.0000000   0.0000000   0.0000000), wk =   0.0312500
        k(    2) = (  -0.5000000  -0.5000000  -0.7444933), wk =   0.0000000
        k(    3) = (   0.0000000   0.0000000   0.3722466), wk =   0.0625000
        k(    4) = (  -0.5000000  -0.5000000  -0.3722466), wk =   0.0000000
        k(    5) = (   0.0000000   0.0000000  -0.7444933), wk =   0.0312500
        k(    6) = (  -0.5000000  -0.5000000  -1.4889866), wk =   0.0000000
        k(    7) = (   0.0000000   0.2500000   0.0000000), wk =   0.1250000
        k(    8) = (  -0.5000000  -0.2500000  -0.7444933), wk =   0.0000000
        k(    9) = (   0.0000000   0.2500000   0.3722466), wk =   0.2500000
        k(   10) = (  -0.5000000  -0.2500000  -0.3722466), wk =   0.0000000
        k(   11) = (   0.0000000   0.2500000  -0.7444933), wk =   0.1250000
        k(   12) = (  -0.5000000  -0.2500000  -1.4889866), wk =   0.0000000
        k(   13) = (   0.0000000  -0.5000000   0.0000000), wk =   0.0625000
        k(   14) = (  -0.5000000  -1.0000000  -0.7444933), wk =   0.0000000
        k(   15) = (   0.0000000  -0.5000000   0.3722466), wk =   0.1250000
        k(   16) = (  -0.5000000  -1.0000000  -0.3722466), wk =   0.0000000
        k(   17) = (   0.0000000  -0.5000000  -0.7444933), wk =   0.0625000
        k(   18) = (  -0.5000000  -1.0000000  -1.4889866), wk =   0.0000000
        k(   19) = (   0.2500000   0.2500000   0.0000000), wk =   0.0625000
        k(   20) = (  -0.2500000  -0.2500000  -0.7444933), wk =   0.0000000
        k(   21) = (   0.2500000   0.2500000   0.3722466), wk =   0.1250000
        k(   22) = (  -0.2500000  -0.2500000  -0.3722466), wk =   0.0000000
        k(   23) = (   0.2500000   0.2500000  -0.7444933), wk =   0.0625000
        k(   24) = (  -0.2500000  -0.2500000  -1.4889866), wk =   0.0000000
        k(   25) = (   0.2500000  -0.5000000   0.0000000), wk =   0.1250000
        k(   26) = (  -0.2500000  -1.0000000  -0.7444933), wk =   0.0000000
        k(   27) = (   0.2500000  -0.5000000   0.3722466), wk =   0.2500000
        k(   28) = (  -0.2500000  -1.0000000  -0.3722466), wk =   0.0000000
        k(   29) = (   0.2500000  -0.5000000  -0.7444933), wk =   0.1250000
        k(   30) = (  -0.2500000  -1.0000000  -1.4889866), wk =   0.0000000
        k(   31) = (  -0.5000000  -0.5000000   0.0000000), wk =   0.0312500
        k(   32) = (  -1.0000000  -1.0000000  -0.7444933), wk =   0.0000000
        k(   33) = (  -0.5000000  -0.5000000   0.3722466), wk =   0.0625000
        k(   34) = (  -1.0000000  -1.0000000  -0.3722466), wk =   0.0000000
        k(   35) = (  -0.5000000  -0.5000000  -0.7444933), wk =   0.0312500
        k(   36) = (  -1.0000000  -1.0000000  -1.4889866), wk =   0.0000000
        k(   37) = (   0.2500000  -0.2500000   0.0000000), wk =   0.0625000
        k(   38) = (  -0.2500000  -0.7500000  -0.7444933), wk =   0.0000000
        k(   39) = (   0.2500000  -0.2500000   0.3722466), wk =   0.1250000
        k(   40) = (  -0.2500000  -0.7500000  -0.3722466), wk =   0.0000000
        k(   41) = (   0.2500000  -0.2500000  -0.7444933), wk =   0.0625000
        k(   42) = (  -0.2500000  -0.7500000  -1.4889866), wk =   0.0000000

     Check: negative/imaginary core charge=   -0.000002    0.000000

     The potential is recalculated from file :
     ./_ph0/444.save/charge-density.dat

     Starting wfc are   34 atomic wfcs

     Band Structure Calculation
     Davidson diagonalization with overlap

     ethr =  1.92E-11,  avg # of iterations = 12.1

     End of band structure calculation

[...]

          k = 0.2500-0.2500-0.7445 (  5618 PWs)   bands (ev):

[...]

          k =-0.2500-0.7500-1.4890 (  5644 PWs)   bands (ev):

   -12.0375 -11.7201 -11.3389 -11.3199 -11.3122 -11.3078 -11.1990 -11.1658
   -11.1481 -11.1400  -9.2878  -8.0564  -8.0220  -6.8412   1.7902   3.9375
     5.0821   5.5257   6.4141   6.5477   6.6397   7.3105   7.5926   7.6908
     8.1406   8.4626

     highest occupied level (ev):     8.9050

     Writing output data file 444.save

     Phonon dispersions for SnO2

     bravais-lattice index     =            6
     lattice parameter (alat)  =       9.1370  a.u.
     unit-cell volume          =     512.3005 (a.u.)^3
     number of atoms/cell      =            6
     number of atomic types    =            2
     kinetic-energy cut-off    =      75.0000  Ry
     charge density cut-off    =     300.0000  Ry
     convergence threshold     =      1.0E-14
     beta                      =       0.7000
     number of iterations used =            4
     Exchange-correlation      = PBE ( 1  4  3  4 0 0)

     celldm(1)=    9.13703  celldm(2)=    1.00000  celldm(3)=    0.67160
     celldm(4)=    0.00000  celldm(5)=    0.00000  celldm(6)=    0.00000

     crystal axes: (cart. coord. in units of alat)
               a(1) = (  1.0000  0.0000  0.0000 )
               a(2) = (  0.0000  1.0000  0.0000 )
               a(3) = (  0.0000  0.0000  0.6716 )

     reciprocal axes: (cart. coord. in units 2 pi/alat)
               b(1) = (  1.0000  0.0000  0.0000 )
               b(2) = (  0.0000  1.0000  0.0000 )
               b(3) = (  0.0000  0.0000  1.4890 )

     Atoms inside the unit cell:

     Cartesian axes

     site n.  atom      mass           positions (alat units)
        1     Sn 118.7100   tau(    1) = (   -0.00033   -0.00033    0.00000  )
        2     Sn 118.7100   tau(    2) = (    0.49967    0.49967    0.33580  )
        3     O   15.9990   tau(    3) = (    0.80637    0.19296    0.33580  )
        4     O   15.9990   tau(    4) = (    0.19296    0.80637    0.33580  )
        5     O   15.9990   tau(    5) = (    0.30637    0.30637    0.00000  )
        6     O   15.9990   tau(    6) = (    0.69296    0.69296    0.00000  )

     Computing dynamical matrix for
                    q = (  -0.5000000  -0.5000000  -0.7444933 )

      5 Sym.Ops. (with q -> -q+G )

     G cutoff =  634.4127  (   5619 G-vectors)     FFT grid: ( 54, 54, 36)
     number of k points=    42

     PseudoPot. # 1 for Sn read from file:
     ../../../Pseudo_potentials/Sn_PBE.upf
     MD5 check sum: 78e6386ae56e929f0568ae8bf606a80c
     Pseudo is Norm-conserving + core correction, Zval = 14.0
     Generated using ONCVPSP code by D. R. Hamann
     Using radial grid of 1628 points,  6 beta functions with:
                l(1) =   0
                l(2) =   0
                l(3) =   1
                l(4) =   1
                l(5) =   2
                l(6) =   2

     PseudoPot. # 2 for O  read from file:
     ../../../Pseudo_potentials/O_PBE.upf
     MD5 check sum: 3e3f909f7470e8921608ab6b1f57bbae
     Pseudo is Norm-conserving + core correction, Zval =  6.0
     Generated using ONCVPSP code by D. R. Hamann
     Using radial grid of  936 points,  5 beta functions with:
                l(1) =   0
                l(2) =   0
                l(3) =   1
                l(4) =   1
                l(5) =   2

[...]

     Atomic displacements:
     There are  18 irreducible representations

[...]

     Representation    18      1 modes -B_2  D_4  S_4  To be done

     Alpha used in Ewald sum =   2.7000

[...]

     Representation # 18 mode #  18

     Self-consistent Calculation

[...]

      thresh= 1.731E-08 alpha_mix =  0.700 |ddv_scf|^2 =  5.716E-16

     End of self-consistent calculation

     Convergence has been achieved

     Number of q in the star =    1
     List of q in the star:
          1  -0.500000000  -0.500000000  -0.744493277

     Diagonalizing the dynamical matrix

     q = (   -0.500000000  -0.500000000  -0.744493277 )

     freq (    1) =       2.945578 [THz] =      98.253911 [cm-1]
     freq (    2) =       2.954468 [THz] =      98.550450 [cm-1]
     freq (    3) =       5.645930 [THz] =     188.327942 [cm-1]
     freq (    4) =       5.649402 [THz] =     188.443755 [cm-1]
     freq (    5) =       6.243843 [THz] =     208.272181 [cm-1]
     freq (    6) =       6.265843 [THz] =     209.006015 [cm-1]
     freq (    7) =       7.070401 [THz] =     235.843188 [cm-1]
     freq (    8) =       7.094782 [THz] =     236.656462 [cm-1]
     freq (    9) =       8.706860 [THz] =     290.429591 [cm-1]
     freq (   10) =       8.710193 [THz] =     290.540770 [cm-1]
     freq (   11) =      14.755975 [THz] =     492.206344 [cm-1]
     freq (   12) =      14.757345 [THz] =     492.252036 [cm-1]
     freq (   13) =      15.639116 [THz] =     521.664752 [cm-1]
     freq (   14) =      15.639736 [THz] =     521.685434 [cm-1]
     freq (   15) =      16.011818 [THz] =     534.096775 [cm-1]
     freq (   16) =      16.012558 [THz] =     534.121437 [cm-1]
     freq (   17) =      20.052205 [THz] =     668.869563 [cm-1]
     freq (   18) =      20.061538 [THz] =     669.180873 [cm-1]

     Mode symmetry, C_2v (mm2)  point group:

     freq (  1 -  1) =         98.3  [cm-1]   --> B_1  D_3  S_3
     freq (  2 -  2) =         98.6  [cm-1]   --> B_2  D_4  S_4
     freq (  3 -  3) =        188.3  [cm-1]   --> A_1  D_1  S_1
     freq (  4 -  4) =        188.4  [cm-1]   --> A_2  D_2  S_2
     freq (  5 -  5) =        208.3  [cm-1]   --> A_2  D_2  S_2
     freq (  6 -  6) =        209.0  [cm-1]   --> B_1  D_3  S_3
     freq (  7 -  7) =        235.8  [cm-1]   --> B_2  D_4  S_4
     freq (  8 -  8) =        236.7  [cm-1]   --> B_1  D_3  S_3
     freq (  9 -  9) =        290.4  [cm-1]   --> B_2  D_4  S_4
     freq ( 10 - 10) =        290.5  [cm-1]   --> A_1  D_1  S_1
     freq ( 11 - 11) =        492.2  [cm-1]   --> A_1  D_1  S_1
     freq ( 12 - 12) =        492.3  [cm-1]   --> B_2  D_4  S_4
     freq ( 13 - 13) =        521.7  [cm-1]   --> A_1  D_1  S_1
     freq ( 14 - 14) =        521.7  [cm-1]   --> A_2  D_2  S_2
     freq ( 15 - 15) =        534.1  [cm-1]   --> B_1  D_3  S_3
     freq ( 16 - 16) =        534.1  [cm-1]   --> B_2  D_4  S_4
     freq ( 17 - 17) =        668.9  [cm-1]   --> A_1  D_1  S_1
     freq ( 18 - 18) =        669.2  [cm-1]   --> B_2  D_4  S_4

     General routines

     Parallel routines

     INITIALIZATION:

     DYNAMICAL MATRIX:

      General routines

   This run was terminated on:  17:55:22   5May2018

   JOB DONE.