     Program PWSCF v.6.2.2 starts on 23May2018 at 15:44:21

     R & G space division:  proc/nbgrp/npool/nimage =       2
     Reading input from scfield.in
Warning: card &IONS ignored
Warning: card / ignored
Warning: card &CELL ignored
Warning: card / ignored

     Current dimensions of program PWSCF are:
     Max number of different atomic species (ntypx) = 10
     Max number of k-points (npk) =  40000
     Max angular momentum in pseudopotentials (lmaxx) =  3

     Subspace diagonalization in iterative solution of the eigenvalue problem:
     a serial algorithm will be used

     bravais-lattice index     =            6
     lattice parameter (alat)  =       9.1370  a.u.
     unit-cell volume          =     512.3005 (a.u.)^3
     number of atoms/cell      =            6
     number of atomic types    =            2
     number of electrons       =        52.00
     number of Kohn-Sham states=           28
     kinetic-energy cutoff     =      75.0000  Ry
     charge density cutoff     =     300.0000  Ry
     convergence threshold     =      1.0E-18
     mixing beta               =       0.7000
     number of iterations used =            8  plain     mixing
     Exchange-correlation      = PBE ( 1  4  3  4 0 0)

     celldm(1)=   9.137033  celldm(2)=   0.000000  celldm(3)=   0.671598
     celldm(4)=   0.000000  celldm(5)=   0.000000  celldm(6)=   0.000000

     crystal axes: (cart. coord. in units of alat)
               a(1) = (   1.000000   0.000000   0.000000 )
               a(2) = (   0.000000   1.000000   0.000000 )
               a(3) = (   0.000000   0.000000   0.671598 )

     reciprocal axes: (cart. coord. in units 2 pi/alat)
               b(1) = (  1.000000  0.000000  0.000000 )
               b(2) = (  0.000000  1.000000  0.000000 )
               b(3) = (  0.000000  0.000000  1.488987 )

     PseudoPot. # 1 for Sn read from file:
     ../Pseudo_potentials/Sn_PBE.upf
     MD5 check sum: 78e6386ae56e929f0568ae8bf606a80c
     Pseudo is Norm-conserving + core correction, Zval = 14.0
     Generated using ONCVPSP code by D. R. Hamann
     Using radial grid of 1628 points,  6 beta functions with:
                l(1) =   0
                l(2) =   0
                l(3) =   1
                l(4) =   1
                l(5) =   2
                l(6) =   2

     PseudoPot. # 2 for O  read from file:
     ../Pseudo_potentials/O_PBE.upf
     MD5 check sum: 3e3f909f7470e8921608ab6b1f57bbae
     Pseudo is Norm-conserving + core correction, Zval =  6.0
     Generated using ONCVPSP code by D. R. Hamann
     Using radial grid of  936 points,  5 beta functions with:
                l(1) =   0
                l(2) =   0
                l(3) =   1
                l(4) =   1
                l(5) =   2

     atomic species   valence    mass     pseudopotential
        Sn            14.00   118.71000     Sn( 1.00)
        O              6.00    15.99900     O ( 1.00)

      4 Sym. Ops. (no inversion) found

   Cartesian axes

     site n.     atom                  positions (alat units)
         1           Sn  tau(   1) = (  -0.0003320  -0.0003320   0.0000000  )
         2           Sn  tau(   2) = (   0.4996675   0.4996675   0.3357989  )
         3           O   tau(   3) = (   0.8063692   0.1929618   0.3357989  )
         4           O   tau(   4) = (   0.1929618   0.8063692   0.3357989  )
         5           O   tau(   5) = (   0.3063705   0.3063705   0.0000000  )
         6           O   tau(   6) = (   0.6929630   0.6929630   0.0000000  )

     number of k points=    21
                       cart. coord. in units 2pi/alat
        k(    1) = (   0.0000000   0.0000000   0.0000000), wk =   0.0312500
        k(    2) = (   0.0000000   0.0000000   0.3722466), wk =   0.0625000
        k(    3) = (   0.0000000   0.0000000  -0.7444933), wk =   0.0312500
        k(    4) = (   0.0000000   0.2500000   0.0000000), wk =   0.1250000
        k(    5) = (   0.0000000   0.2500000   0.3722466), wk =   0.2500000
        k(    6) = (   0.0000000   0.2500000  -0.7444933), wk =   0.1250000
        k(    7) = (   0.0000000  -0.5000000   0.0000000), wk =   0.0625000
        k(    8) = (   0.0000000  -0.5000000   0.3722466), wk =   0.1250000
        k(    9) = (   0.0000000  -0.5000000  -0.7444933), wk =   0.0625000
        k(   10) = (   0.2500000   0.2500000   0.0000000), wk =   0.0625000
        k(   11) = (   0.2500000   0.2500000   0.3722466), wk =   0.1250000
        k(   12) = (   0.2500000   0.2500000  -0.7444933), wk =   0.0625000
        k(   13) = (   0.2500000  -0.5000000   0.0000000), wk =   0.1250000
        k(   14) = (   0.2500000  -0.5000000   0.3722466), wk =   0.2500000
        k(   15) = (   0.2500000  -0.5000000  -0.7444933), wk =   0.1250000
        k(   16) = (  -0.5000000  -0.5000000   0.0000000), wk =   0.0312500
        k(   17) = (  -0.5000000  -0.5000000   0.3722466), wk =   0.0625000
        k(   18) = (  -0.5000000  -0.5000000  -0.7444933), wk =   0.0312500
        k(   19) = (   0.2500000  -0.2500000   0.0000000), wk =   0.0625000
        k(   20) = (   0.2500000  -0.2500000   0.3722466), wk =   0.1250000
        k(   21) = (   0.2500000  -0.2500000  -0.7444933), wk =   0.0625000

     Check: negative/imaginary core charge=   -0.000002    0.000000

     Initial potential from superposition of free atoms

     starting charge   51.99690, renormalised to   52.00000
     Starting wfc are   34 randomized atomic wfcs

     Self-consistent Calculation

     iteration #  1     ecut=    75.00 Ry     beta= 0.70
     Davidson diagonalization with overlap
     ethr =  1.00E-02,  avg # of iterations =  2.0

     total energy              =    -446.85053611 Ry
     Harris-Foulkes estimate   =    -448.03306770 Ry
     estimated scf accuracy    <       1.60496155 Ry

[...]

     total energy              =    -447.58851075 Ry
     Harris-Foulkes estimate   =    -447.58851075 Ry
     estimated scf accuracy    <          4.2E-18 Ry

     iteration # 19     ecut=    75.00 Ry     beta= 0.70
     Davidson diagonalization with overlap
     ethr =  1.00E-13,  avg # of iterations =  1.0

     End of self-consistent calculation

          k = 0.0000 0.0000 0.0000 (  5609 PWs)   bands (ev):

   -12.1626 -11.5450 -11.3470 -11.3189 -11.3189 -11.2385 -11.2181 -11.1520
   -11.1404 -11.1404  -9.6859  -7.9707  -7.9707  -6.5142   0.9520   5.0331
     5.0331   5.1380   6.0354   6.8925   6.9464   7.6277   7.6277   8.1988
     8.1988   8.9050   9.4984  14.4954

[...]

          k =-0.5000-0.5000 0.0000 (  5660 PWs)   bands (ev):

[...]

          k =-0.5000-0.5000-0.7445 (  5616 PWs)   bands (ev):

[...]

          k = 0.2500-0.2500-0.7445 (  5618 PWs)   bands (ev):

   -12.0979 -11.9549 -11.5470 -11.3216 -11.2351 -11.2324 -11.1677 -11.1654
   -11.1381 -11.1347  -8.3504  -8.0699  -6.7685  -6.5670   1.4858   2.0749
     3.8987   4.4074   4.4641   6.0556   6.3450   7.7137   7.7349   7.7753
     7.8297   7.9584  13.9010  14.4346

     highest occupied, lowest unoccupied level (ev):     8.9050    9.4984

!    total energy              =    -447.58851075 Ry
     Harris-Foulkes estimate   =    -447.58851075 Ry
     estimated scf accuracy    <          6.7E-19 Ry

     The total energy is the sum of the following terms:

     one-electron contribution =    -125.64626571 Ry
     hartree contribution      =     101.53065184 Ry
     xc contribution           =    -122.07285716 Ry
     ewald contribution        =    -301.40003973 Ry

     convergence has been achieved in  19 iterations

     Writing output data file SnO2.save

     General routines

     Parallel routines

   This run was terminated on:  15:46:21  23May2018

   JOB DONE.